CH3COOH_Pt100
 1.0000000000000000
     8.3155757467537992    0.0000000000000000    0.0000000000000000
     0.0000000000000000    8.3155757467537992    0.0000000000000000
     0.0000000000000000    0.0000000000000000   35.8800000000000026
 Pt  C   O   H  
  36   2   2   4
Selective dynamics
Cartesian
  1.3859292911256331  1.3859292911256331 15.0000000000000018   F   F   F
  4.1577878733768996  1.3859292911256331 15.0000000000000018   F   F   F
  6.9296464556281654  1.3859292911256331 15.0000000000000018   F   F   F
  1.3859292911256331  4.1577878733768996 15.0000000000000018   F   F   F
  4.1577878733768996  4.1577878733768996 15.0000000000000018   F   F   F
  6.9296464556281654  4.1577878733768996 15.0000000000000018   F   F   F
  1.3859292911256331  6.9296464556281654 15.0000000000000018   F   F   F
  4.1577878733768996  6.9296464556281654 15.0000000000000018   F   F   F
  6.9296464556281654  6.9296464556281654 15.0000000000000018   F   F   F
  0.0000000000000000  0.0000000000000000 16.9600000000000009   F   F   F
  2.7718585822512662  0.0000000000000000 16.9600000000000009   F   F   F
  5.5437171645025325  0.0000000000000000 16.9600000000000009   F   F   F
  0.0000000000000000  2.7718585822512662 16.9600000000000009   F   F   F
  2.7718585822512662  2.7718585822512662 16.9600000000000009   F   F   F
  5.5437171645025325  2.7718585822512662 16.9600000000000009   F   F   F
  0.0000000000000000  5.5437171645025325 16.9600000000000009   F   F   F
  2.7718585822512662  5.5437171645025325 16.9600000000000009   F   F   F
  5.5437171645025325  5.5437171645025325 16.9600000000000009   F   F   F
  1.3868164418699533  1.3808700122193012 18.9449230712680006   T   T   T
  4.1674223522941825  1.3928089403433566 18.9596753200153216   T   T   T
  6.9231053316606452  1.3890105272973743 18.9593387474279638   T   T   T
  1.3819557455327995  4.1577526809207761 18.9457286692951854   T   T   T
  4.1714132850667722  4.1411841036050934 18.9690892348751809   T   T   T
  6.9083848309022944  4.1377297575973540 18.9741987676273673   T   T   T
  1.3825525733400674  6.9244861298505427 18.9524428019477824   T   T   T
  4.1520792152075483  6.9219840923669960 18.9440089559394416   T   T   T
  6.9274543887879947  6.9186206594566046 18.9443587466342542   T   T   T
  8.3107032248107480  8.3081241779202095 20.9287964025049540   T   T   T
  2.7781158282560328  8.3115145158577306 20.9333998757072273   T   T   T
  5.5427954334914142  8.2939477861226418 20.9035562627692570   T   T   T
  0.0129767720003501  2.7663681476600872 20.9278761922258205   T   T   T
  2.7588000960793959  2.7659893425417432 20.9192894665174371   T   T   T
  5.5452049431632746  2.8258394204377018 21.0453556384550353   T   T   T
  8.2977144436864663  5.5312627069812672 20.9404748730171946   T   T   T
  2.7609675460238408  5.5327506443381402 20.9365809435987913   T   T   T
  5.5243778482285659  5.5673712357990643 20.9568836261564329   T   T   T
  5.1241096276820883  2.5138277289885629 25.4830935545016821   T   T   T
  5.1857410931444239  3.0747820646515596 24.1017139647555574   T   T   T
  5.5496926079596438  2.3504084981586999 23.1444175346755898   T   T   T
  4.8414455915697587  4.3420649379572360 23.9967825655770639   T   T   T
  4.1046784633740270  2.6147669759623082 25.8691589358350775   T   T   T
  5.7751728882464626  3.0987753527478006 26.1401435674958798   T   T   T
  5.4278077871571702  1.4681743351468690 25.4852233914082582   T   T   T
  4.9483731567109261  4.6407447372951189 23.0274538554213457   T   T   T
