SO2_Ag100
 1.0000000000000000
     8.6762002051589384    0.0000000000000000    0.0000000000000000
     0.0000000000000000    8.6762002051589384    0.0000000000000000
     0.0000000000000000    0.0000000000000000   36.1349999999999980
 Ag  S   O  
  36   1   2
Selective dynamics
Cartesian
  1.4460333675264894  1.4460333675264894 15.0000000000000000   F   F   F
  4.3381001025794692  1.4460333675264894 15.0000000000000000   F   F   F
  7.2301668376324475  1.4460333675264894 15.0000000000000000   F   F   F
  1.4460333675264894  4.3381001025794692 15.0000000000000000   F   F   F
  4.3381001025794692  4.3381001025794692 15.0000000000000000   F   F   F
  7.2301668376324475  4.3381001025794692 15.0000000000000000   F   F   F
  1.4460333675264894  7.2301668376324475 15.0000000000000000   F   F   F
  4.3381001025794692  7.2301668376324475 15.0000000000000000   F   F   F
  7.2301668376324475  7.2301668376324475 15.0000000000000000   F   F   F
  0.0000000000000000  0.0000000000000000 17.0450000000000017   F   F   F
  2.8920667350529787  0.0000000000000000 17.0450000000000017   F   F   F
  5.7841334701059575  0.0000000000000000 17.0450000000000017   F   F   F
  0.0000000000000000  2.8920667350529787 17.0450000000000017   F   F   F
  2.8920667350529787  2.8920667350529787 17.0450000000000017   F   F   F
  5.7841334701059575  2.8920667350529787 17.0450000000000017   F   F   F
  0.0000000000000000  5.7841334701059575 17.0450000000000017   F   F   F
  2.8920667350529787  5.7841334701059575 17.0450000000000017   F   F   F
  5.7841334701059575  5.7841334701059575 17.0450000000000017   F   F   F
  1.4418959468049362  1.4489088946829407 19.1990057108288816   T   T   T
  4.3326994199770335  1.4533284158748916 19.1662319023173744   T   T   T
  7.2516653318031619  1.4428556408380366 19.1857057305730763   T   T   T
  1.4490924448551525  4.3178372414001815 19.1847942769361239   T   T   T
  4.3280253594411473  4.3250390160631138 19.1771851947942586   T   T   T
  7.2380701080337655  4.3298283544465761 19.1636083967188178   T   T   T
  1.4375527640107175  7.2386654812732623 19.1707545321869510   T   T   T
  4.3382880765810379  7.2284922125672342 19.1498260014532562   T   T   T
  7.2418789112325097  7.2383368919121089 19.1758073655265626   T   T   T
  8.6599409910879483  8.6171098609002694 21.2857961672656266   T   T   T
  2.9139141124864447  8.6544043340320567 21.2233966066969515   T   T   T
  5.7641007682528755  8.6730701749489434 21.2287162194980823   T   T   T
  8.6550470991851505  2.9179620703163018 21.3138350261976193   T   T   T
  2.9435178239629227  2.9099348738986963 21.2860665708864012   T   T   T
  5.7981338271116138  2.8954633861259924 21.2437345632400891   T   T   T
  8.6730550611203796  5.7665367806654526 21.2465174204623892   T   T   T
  2.8938039372000639  5.8019310110973974 21.2310235626378194   T   T   T
  5.7827923762590521  5.7859361121880548 21.2373340421635994   T   T   T
  0.8069021359149184  2.0459979550385547 23.7106205825296605   T   T   T
  2.2862534753529329  2.2403694905785660 23.5086749261357220   T   T   T
  0.3706618851937690  0.6155026615302670 23.5564056699647715   T   T   T
