C2H4_Pt110
 1.0000000000000000
    11.7599999999999998    0.0000000000000000    0.0000000000000000
     0.0000000000000000    5.5437171645025325    0.0000000000000000
     0.0000000000000000    0.0000000000000000   34.1577878733768969
 Pt  C   H  
  24   2   4
Selective dynamics
Cartesian
  1.9600000000000000  1.3859292911256331 14.9999999999999982   F   F   F
  5.8799999999999999  1.3859292911256331 14.9999999999999982   F   F   F
  9.8000000000000007  1.3859292911256331 14.9999999999999982   F   F   F
  1.9600000000000000  4.1577878733768996 14.9999999999999982   F   F   F
  5.8799999999999999  4.1577878733768996 14.9999999999999982   F   F   F
  9.8000000000000007  4.1577878733768996 14.9999999999999982   F   F   F
  0.0000000000000000  0.0000000000000000 16.3859292911256311   F   F   F
  3.9199999999999999  0.0000000000000000 16.3859292911256311   F   F   F
  7.8399999999999999  0.0000000000000000 16.3859292911256311   F   F   F
  0.0000000000000000  2.7718585822512662 16.3859292911256311   F   F   F
  3.9199999999999999  2.7718585822512662 16.3859292911256311   F   F   F
  7.8399999999999999  2.7718585822512662 16.3859292911256311   F   F   F
  1.9642051862874494  1.4091703105804931 17.8873751467124649   T   T   T
  5.8810332435374217  1.4090899318884607 17.8842538660827373   T   T   T
  9.8034495705827318  1.3857654356873759 17.9040931167914756   T   T   T
  1.9652585567814287  4.1634911377561918 17.8854789839412369   T   T   T
  5.8799248765990448  4.1643386441622239 17.8821579868194540   T   T   T
  9.8033543425560357  4.1657010564836492 17.9032255440731340   T   T   T
  0.0207082795456129  0.0070096080124019 19.1920519555850326   T   T   T
  3.9232690007838826  0.0283189260642513 19.1352941396271206   T   T   T
  7.8256226083130063  0.0077823969131895 19.1896038585320525   T   T   T
  0.0080846125609115  2.7795141982111264 19.1819088282670940   T   T   T
  3.9244966257657548  2.7976631948649011 19.2931408796367698   T   T   T
  7.8410911050074308  2.7802079792265229 19.1789509743689628   T   T   T
  3.2668313432068370  2.8552335114902925 21.3135258683259572   T   T   T
  4.6912125619070428  2.8454132992929084 21.2774538152629802   T   T   T
  2.7383918289095290  3.7854516939186693 21.5170833596486553   T   T   T
  2.7261469703947281  1.9471554062716769 21.5753801449006488   T   T   T
  5.2447331607525740  3.7674400899860427 21.4512250710385750   T   T   T
  5.2344812986317697  1.9301294689983350 21.5089745603035887   T   T   T
