HCOOH_Pt110
 1.0000000000000000
    11.7599999999999998    0.0000000000000000    0.0000000000000000
     0.0000000000000000    5.5437171645025325    0.0000000000000000
     0.0000000000000000    0.0000000000000000   34.1577878733768969
 Pt  O   C   H  
  24   2   1   2
Selective dynamics
Cartesian
  1.9600000000000000  1.3859292911256331 14.9999999999999982   F   F   F
  5.8799999999999999  1.3859292911256331 14.9999999999999982   F   F   F
  9.8000000000000007  1.3859292911256331 14.9999999999999982   F   F   F
  1.9600000000000000  4.1577878733768996 14.9999999999999982   F   F   F
  5.8799999999999999  4.1577878733768996 14.9999999999999982   F   F   F
  9.8000000000000007  4.1577878733768996 14.9999999999999982   F   F   F
  0.0000000000000000  0.0000000000000000 16.3859292911256311   F   F   F
  3.9199999999999999  0.0000000000000000 16.3859292911256311   F   F   F
  7.8399999999999999  0.0000000000000000 16.3859292911256311   F   F   F
  0.0000000000000000  2.7718585822512662 16.3859292911256311   F   F   F
  3.9199999999999999  2.7718585822512662 16.3859292911256311   F   F   F
  7.8399999999999999  2.7718585822512662 16.3859292911256311   F   F   F
  1.9493486637839263  1.3647298331300257 17.9020928553995731   T   T   T
  5.8821791729782964  1.3636746978449914 17.8966125410767418   T   T   T
  9.8097691677489678  1.3553564255318180 17.8708790189801192   T   T   T
  1.9521880956123967  4.1413622441906668 17.9034667006499149   T   T   T
  5.8778110718907097  4.1313555733632761 17.8865031100666556   T   T   T
  9.8004170355339610  4.1211651757804928 17.8824914161324990   T   T   T
 11.7402110402139730  5.5134308131126923 19.1924403653569016   T   T   T
  3.9189533261271441  5.5241874725855338 19.1835748337725072   T   T   T
  7.8549457661313715  5.4908545459130389 19.1587815110202122   T   T   T
 11.7496818621991750  2.7433905105260923 19.1942863781214967   T   T   T
  3.9046488965289332  2.7479386524751801 19.1761394860742236   T   T   T
  7.8943915345393174  2.7383841645126901 19.2177065337328727   T   T   T
  6.7745305699676228  4.6664607981673649 21.8594273452434642   T   T   T
  7.0294239438132227  2.5039713331143760 21.1647798227091926   T   T   T
  6.6586294156191732  3.3810371761028875 21.9725807852486703   T   T   T
  7.2015999928999843  4.9138596476046423 20.8978790271666561   T   T   T
  6.1747440017459159  3.0552729825309837 22.9046452809445107   T   T   T
