H2CO_Rh100
 1.0000000000000000
     8.0673812665573212    0.0000000000000000    0.0000000000000000
     0.0000000000000000    8.0673812665573212    0.0000000000000000
     0.0000000000000000    0.0000000000000000   35.7044999999999959
 Rh  C   O   H  
  36   1   1   2
Selective dynamics
Cartesian
  1.3445635444262201  1.3445635444262201 14.9999999999999964   F   F   F
  4.0336906332786597  1.3445635444262201 14.9999999999999964   F   F   F
  6.7228177221311043  1.3445635444262201 14.9999999999999964   F   F   F
  1.3445635444262201  4.0336906332786597 14.9999999999999964   F   F   F
  4.0336906332786597  4.0336906332786597 14.9999999999999964   F   F   F
  6.7228177221311043  4.0336906332786597 14.9999999999999964   F   F   F
  1.3445635444262201  6.7228177221311043 14.9999999999999964   F   F   F
  4.0336906332786597  6.7228177221311043 14.9999999999999964   F   F   F
  6.7228177221311043  6.7228177221311043 14.9999999999999964   F   F   F
  0.0000000000000000  0.0000000000000000 16.9014999999999986   F   F   F
  2.6891270888524401  0.0000000000000000 16.9014999999999986   F   F   F
  5.3782541777048802  0.0000000000000000 16.9014999999999986   F   F   F
  0.0000000000000000  2.6891270888524401 16.9014999999999986   F   F   F
  2.6891270888524401  2.6891270888524401 16.9014999999999986   F   F   F
  5.3782541777048802  2.6891270888524401 16.9014999999999986   F   F   F
  0.0000000000000000  5.3782541777048802 16.9014999999999986   F   F   F
  2.6891270888524401  5.3782541777048802 16.9014999999999986   F   F   F
  5.3782541777048802  5.3782541777048802 16.9014999999999986   F   F   F
  1.3626587434047435  1.3410555668273048 18.8566845752488028   T   T   T
  4.0264525299727945  1.3406106664509732 18.8537306090932333   T   T   T
  6.7263214143234960  1.3385045186047038 18.8385632802654683   T   T   T
  1.3636882640495129  4.0147784624365359 18.8635370009315722   T   T   T
  4.0249852371272894  4.0185110250662506 18.8554110442105980   T   T   T
  6.7258934064411644  4.0292257149908401 18.8353912781566777   T   T   T
  1.3480366867533362  6.7210673778029459 18.8377754787777008   T   T   T
  4.0326927191925499  6.7233461707228530 18.8408277682636012   T   T   T
  6.7260812913332115  6.7132098682888426 18.8344356942717823   T   T   T
  8.0629702921723680  8.0592559649408102 20.6778860126460202   T   T   T
  2.7023171206448273  0.0025770084518774 20.7420212849743635   T   T   T
  5.4007569317204931  8.0542705897647728 20.6758872010194352   T   T   T
  8.0597915566266494  2.6789107723011383 20.6785397283874950   T   T   T
  2.7015970490009864  2.7191875261356886 20.7903640100386617   T   T   T
  5.4075626261275263  2.6837532487754832 20.6774255139181555   T   T   T
  0.0142159141527833  5.3710034286165502 20.6912992218907057   T   T   T
  2.6926462496712462  5.3969335463237016 20.6847579700853750   T   T   T
  5.3716696507270463  5.3734731243382070 20.6899541920100241   T   T   T
  2.9275282422029032  0.7848502880682715 22.6587880325915556   T   T   T
  2.9636116425678778  2.1304562555049871 22.6483205474270655   T   T   T
  3.8542132465298411  0.3131674354062968 23.0654646411736124   T   T   T
  2.0207833944925455  0.3587989271550620 23.1485830783378006   T   T   T
