HCOOH_Pt100
 1.0000000000000000
     8.3155757467537992    0.0000000000000000    0.0000000000000000
     0.0000000000000000    8.3155757467537992    0.0000000000000000
     0.0000000000000000    0.0000000000000000   35.8800000000000026
 Pt  O   C   H  
  36   2   1   2
Selective dynamics
Cartesian
  1.3859292911256331  1.3859292911256331 15.0000000000000018   F   F   F
  4.1577878733768996  1.3859292911256331 15.0000000000000018   F   F   F
  6.9296464556281654  1.3859292911256331 15.0000000000000018   F   F   F
  1.3859292911256331  4.1577878733768996 15.0000000000000018   F   F   F
  4.1577878733768996  4.1577878733768996 15.0000000000000018   F   F   F
  6.9296464556281654  4.1577878733768996 15.0000000000000018   F   F   F
  1.3859292911256331  6.9296464556281654 15.0000000000000018   F   F   F
  4.1577878733768996  6.9296464556281654 15.0000000000000018   F   F   F
  6.9296464556281654  6.9296464556281654 15.0000000000000018   F   F   F
  0.0000000000000000  0.0000000000000000 16.9600000000000009   F   F   F
  2.7718585822512662  0.0000000000000000 16.9600000000000009   F   F   F
  5.5437171645025325  0.0000000000000000 16.9600000000000009   F   F   F
  0.0000000000000000  2.7718585822512662 16.9600000000000009   F   F   F
  2.7718585822512662  2.7718585822512662 16.9600000000000009   F   F   F
  5.5437171645025325  2.7718585822512662 16.9600000000000009   F   F   F
  0.0000000000000000  5.5437171645025325 16.9600000000000009   F   F   F
  2.7718585822512662  5.5437171645025325 16.9600000000000009   F   F   F
  5.5437171645025325  5.5437171645025325 16.9600000000000009   F   F   F
  1.3701609711186866  1.3859545365957255 18.9675272690352585   T   T   T
  4.1580709443164121  1.3973544277285130 18.9487256424430157   T   T   T
  6.9458318117408400  1.3873929278912303 18.9668628616692203   T   T   T
  1.3871805798469588  4.1654015946221632 18.9506242673347245   T   T   T
  4.1594684767641077  4.1660364615227614 18.9473066998092605   T   T   T
  6.9305889762013173  4.1667889406982743 18.9512030078278855   T   T   T
  1.3774626005260406  6.9502335083828113 18.9638581044235224   T   T   T
  4.1595135992872923  6.9340465046663056 18.9522459107478696   T   T   T
  6.9410117466907710  6.9507740323193055 18.9637594713976476   T   T   T
  0.0031771106752501  0.0794653819385879 21.0493555051229748   T   T   T
  2.7859254136695122  0.0153253469110812 20.9303125762479283   T   T   T
  5.5330150492385952  0.0178906287460020 20.9292332230204252   T   T   T
  0.0000106305661489  2.8147944607161337 20.9720360865250726   T   T   T
  2.7705943804659832  2.7791558938165544 20.9377121963503683   T   T   T
  5.5451013001794536  2.7818698365181205 20.9369637793834755   T   T   T
  0.0043181095672565  5.5559618524426035 20.9197002496970335   T   T   T
  2.7674872845424661  5.5556000034172452 20.9370389256865543   T   T   T
  5.5570654579468073  5.5597320222669309 20.9395393682026345   T   T   T
  8.2875229304219822  2.0151258264481080 23.9065038901487448   T   T   T
  8.3078017381204852  8.1494999910817683 23.2019689129573017   T   T   T
  8.2919288249551677  0.7293483793813540 24.0693434422391483   T   T   T
  8.2980100330259194  2.2546600605840021 22.8565912532363917   T   T   T
  8.2795631605641642  0.4249478543044860 25.1255000241988178   T   T   T
