H2O_Au100
 1.0000000000000000
    11.5399826689644573    0.0000000000000000    0.0000000000000000
     0.0000000000000000   11.5399826689644573    0.0000000000000000
     0.0000000000000000    0.0000000000000000   36.1199999999999974
 Au  O   H  
  64   1   2
Selective dynamics
Cartesian
  1.4424978336205572  1.4424978336205572 14.9999999999999982   F   F   F
  4.3274935008616717  1.4424978336205572 14.9999999999999982   F   F   F
  7.2124891681027856  1.4424978336205572 14.9999999999999982   F   F   F
 10.0974848353439004  1.4424978336205572 14.9999999999999982   F   F   F
  1.4424978336205572  4.3274935008616717 14.9999999999999982   F   F   F
  4.3274935008616717  4.3274935008616717 14.9999999999999982   F   F   F
  7.2124891681027856  4.3274935008616717 14.9999999999999982   F   F   F
 10.0974848353439004  4.3274935008616717 14.9999999999999982   F   F   F
  1.4424978336205572  7.2124891681027856 14.9999999999999982   F   F   F
  4.3274935008616717  7.2124891681027856 14.9999999999999982   F   F   F
  7.2124891681027856  7.2124891681027856 14.9999999999999982   F   F   F
 10.0974848353439004  7.2124891681027856 14.9999999999999982   F   F   F
  1.4424978336205572 10.0974848353439004 14.9999999999999982   F   F   F
  4.3274935008616717 10.0974848353439004 14.9999999999999982   F   F   F
  7.2124891681027856 10.0974848353439004 14.9999999999999982   F   F   F
 10.0974848353439004 10.0974848353439004 14.9999999999999982   F   F   F
  0.0000000000000000  0.0000000000000000 17.0399999999999991   F   F   F
  2.8849956672411143  0.0000000000000000 17.0399999999999991   F   F   F
  5.7699913344822287  0.0000000000000000 17.0399999999999991   F   F   F
  8.6549870017233435  0.0000000000000000 17.0399999999999991   F   F   F
  0.0000000000000000  2.8849956672411143 17.0399999999999991   F   F   F
  2.8849956672411143  2.8849956672411143 17.0399999999999991   F   F   F
  5.7699913344822287  2.8849956672411143 17.0399999999999991   F   F   F
  8.6549870017233435  2.8849956672411143 17.0399999999999991   F   F   F
  0.0000000000000000  5.7699913344822287 17.0399999999999991   F   F   F
  2.8849956672411143  5.7699913344822287 17.0399999999999991   F   F   F
  5.7699913344822287  5.7699913344822287 17.0399999999999991   F   F   F
  8.6549870017233435  5.7699913344822287 17.0399999999999991   F   F   F
  0.0000000000000000  8.6549870017233435 17.0399999999999991   F   F   F
  2.8849956672411143  8.6549870017233435 17.0399999999999991   F   F   F
  5.7699913344822287  8.6549870017233435 17.0399999999999991   F   F   F
  8.6549870017233435  8.6549870017233435 17.0399999999999991   F   F   F
  1.4417303285209291  1.4432083911127522 19.1855108640400367   T   T   T
  4.3277135269029081  1.4423571407091971 19.1843933113763505   T   T   T
  7.2123544578321477  1.4426345919625290 19.1850758501881522   T   T   T
 10.0983571532582683  1.4434055289913326 19.1861495984503030   T   T   T
  1.4425467285575808  4.3275573667207992 19.1869897418708746   T   T   T
  4.3264117555183699  4.3283012562115522 19.1864225151645726   T   T   T
  7.2124772884211614  4.3274752838889619 19.1848141501480143   T   T   T
 10.0982063043075172  4.3267024243551386 19.1855628752530123   T   T   T
  1.4433207251171412  7.2113675263071038 19.1865702870793626   T   T   T
  4.3265267460740651  7.2115422534096432 19.1863753098278274   T   T   T
  7.2126204121273556  7.2123524225720486 19.1850466968254274   T   T   T
 10.0973294624841525  7.2127088680617986 19.1844062044439525   T   T   T
  1.4424813730385493 10.0974663906731976 19.1848241445611158   T   T   T
  4.3273508765149096 10.0976153561872604 19.1850580982681507   T   T   T
  7.2124900065793920 10.0974980226366160 19.1852130057656254   T   T   T
 10.0976231376352139 10.0973497090048134 19.1850751540789588   T   T   T
  0.0012473819419376  0.0017171471917863 21.3094260830904254   T   T   T
  2.8838113918897230  0.0013955735409237 21.3099434160302330   T   T   T
  5.7701408084792121 11.5398292363443957 21.3089069967047777   T   T   T
  8.6551553825589149  0.0001813330995618 21.3091986359824261   T   T   T
 11.5391451590654999  2.8841830603591863 21.3061579924523201   T   T   T
  2.8871433942509963  2.8822532431737908 21.3040769346501726   T   T   T
  5.7687082106514644  2.8862421299791303 21.3097131928158134   T   T   T
  8.6567278967787189  2.8862535996926648 21.3093587492975090   T   T   T
 11.5371220135358268  5.7722846025423724 21.3037794163229783   T   T   T
  2.8866251039048341  5.7715798016690911 21.3048857081808301   T   T   T
  5.7686145128621664  5.7688077785432572 21.3090588352941808   T   T   T
  8.6563558390706206  5.7688290525537580 21.3098875213682319   T   T   T
  0.0012216963451655  8.6538467622302928 21.3096725456581666   T   T   T
  2.8838067119858493  8.6536751270385714 21.3090589222099034   T   T   T
  5.7697250895016756  8.6547081133545429 21.3092274466352158   T   T   T
  8.6548504924002287  8.6551068387223058 21.3089331372002988   T   T   T
  1.4931466757087879  4.4011342205593058 24.4300235654884084   T   T   T
  0.9356663415285145  4.9301966002394808 23.8286694334351132   T   T   T
  1.9870053938477883  3.8248502336100838 23.8165276843669922   T   T   T
