CH3_Pd110
 1.0000000000000000
    11.6699999999999999    0.0000000000000000    0.0000000000000000
     0.0000000000000000    5.5012907576313399    0.0000000000000000
     0.0000000000000000    0.0000000000000000   34.1259680682235071
 Pd  C   H  
  24   1   3
Selective dynamics
Cartesian
  1.9449999999999998  1.3753226894078348 14.9999999999999929   F   F   F
  5.8349999999999991  1.3753226894078348 14.9999999999999929   F   F   F
  9.7249999999999996  1.3753226894078348 14.9999999999999929   F   F   F
  1.9449999999999998  4.1259680682235054 14.9999999999999929   F   F   F
  5.8349999999999991  4.1259680682235054 14.9999999999999929   F   F   F
  9.7249999999999996  4.1259680682235054 14.9999999999999929   F   F   F
  0.0000000000000000  0.0000000000000000 16.3753226894078345   F   F   F
  3.8899999999999997  0.0000000000000000 16.3753226894078345   F   F   F
  7.7799999999999994  0.0000000000000000 16.3753226894078345   F   F   F
  0.0000000000000000  2.7506453788156695 16.3753226894078345   F   F   F
  3.8899999999999997  2.7506453788156695 16.3753226894078345   F   F   F
  7.7799999999999994  2.7506453788156695 16.3753226894078345   F   F   F
  1.9504521406079289  1.3713610581222146 17.8275898414304272   T   T   T
  5.8325715024567986  1.3704685943449282 17.8264544219200616   T   T   T
  9.7296990135568766  1.3749588485883759 17.8208241750345096   T   T   T
  1.9505633568748646  4.1213128447331808 17.8258550208685840   T   T   T
  5.8308373213378122  4.1237648612070821 17.8245250101203503   T   T   T
  9.7293873868291669  4.1243970190231254 17.8212688459715487   T   T   T
  0.0067261264026564  5.4977892090374301 19.1701499142953971   T   T   T
  3.8804151951354715  5.4935664855142701 19.1735429181146522   T   T   T
  7.7821771671666280  5.4992191362567935 19.1642081786224345   T   T   T
  0.0106606229820295  2.7464426128473929 19.1661314065718216   T   T   T
  3.9120384659241725  2.7472613757507793 19.2093574880665550   T   T   T
  7.7802607631027207  2.7473221848486693 19.1579022469958105   T   T   T
  4.2399341717692840  2.8828690444705711 21.1971692156857685   T   T   T
  4.1234736178785214  1.8603940908492005 21.5796630713559985   T   T   T
  5.2550694962213829  3.2677149511651362 21.3530391825407300   T   T   T
  3.4738315532266348  3.5664056335192189 21.5848630427518451   T   T   T
