H2O_Ag110
 1.0000000000000000
    12.2699999999999996    0.0000000000000000    0.0000000000000000
     0.0000000000000000    5.7841334701059592    0.0000000000000000
     0.0000000000000000    0.0000000000000000   34.3381001025794674
 Ag  O   H  
  24   1   2
Selective dynamics
Cartesian
  2.0449999999999999  1.4460333675264898 15.0000000000000053   F   F   F
  6.1349999999999998  1.4460333675264898 15.0000000000000053   F   F   F
 10.2249999999999979  1.4460333675264898 15.0000000000000053   F   F   F
  2.0449999999999999  4.3381001025794692 15.0000000000000053   F   F   F
  6.1349999999999998  4.3381001025794692 15.0000000000000053   F   F   F
 10.2249999999999979  4.3381001025794692 15.0000000000000053   F   F   F
  0.0000000000000000  0.0000000000000000 16.4460333675264891   F   F   F
  4.0899999999999999  0.0000000000000000 16.4460333675264891   F   F   F
  8.1799999999999997  0.0000000000000000 16.4460333675264891   F   F   F
  0.0000000000000000  2.8920667350529796 16.4460333675264891   F   F   F
  4.0899999999999999  2.8920667350529796 16.4460333675264891   F   F   F
  8.1799999999999997  2.8920667350529796 16.4460333675264891   F   F   F
  2.0454020015777843  1.4489911368475128 17.9823399677541893   T   T   T
  6.1374173646404939  1.4443601022988972 17.9797019055746681   T   T   T
 10.2271262328786587  1.4441993021268980 17.9829642067694913   T   T   T
  2.0451381098590344  4.3341750911162116 17.9827748845166866   T   T   T
  6.1372739334593804  4.3392949064601725 17.9819346969377847   T   T   T
 10.2272668674508616  4.3400069204153011 17.9829300392562992   T   T   T
  0.0022391406150939  0.0000063927889911 19.3555158245444083   T   T   T
  4.0859664712194173  5.7816367177207262 19.3361830238796379   T   T   T
  8.1726996058150725  5.7839306496163703 19.3711948480504752   T   T   T
  0.0029518213330535  2.8919268284098090 19.3590885124748340   T   T   T
  4.0616772747065051  2.8920880746316517 19.3766702062579874   T   T   T
  8.1900020907605491  2.8919611132361673 19.3589565042736780   T   T   T
  5.2451745319224470  2.7960017233173340 21.6860026958930341   T   T   T
  5.7892944263064114  2.0137652814316160 21.4616172193577519   T   T   T
  5.8471461209134681  3.5465076204565729 21.5057268100039671   T   T   T
