CH3COOH_Cu111
 1.0000000000000000
    10.2106219203337467    0.0000000000000000    0.0000000000000000
     0.0000000000000000    8.8426579714472719    0.0000000000000000
     0.0000000000000000    0.0000000000000000   36.2527034153236514
 Cu  C   O   H  
  64   2   2   4
Selective dynamics
Cartesian
  0.0000000000000000  0.0000000000000000 15.0000000000000000   F   F   F
  2.5526554800834367  0.0000000000000000 15.0000000000000000   F   F   F
  5.1053109601668734  0.0000000000000000 15.0000000000000000   F   F   F
  7.6579664402503100  0.0000000000000000 15.0000000000000000   F   F   F
  1.2763277400417183  2.2106644928618180 15.0000000000000000   F   F   F
  3.8289832201251550  2.2106644928618180 15.0000000000000000   F   F   F
  6.3816387002085921  2.2106644928618180 15.0000000000000000   F   F   F
  8.9342941802920279  2.2106644928618180 15.0000000000000000   F   F   F
  0.0000000000000000  4.4213289857236360 15.0000000000000000   F   F   F
  2.5526554800834367  4.4213289857236360 15.0000000000000000   F   F   F
  5.1053109601668734  4.4213289857236360 15.0000000000000000   F   F   F
  7.6579664402503100  4.4213289857236360 15.0000000000000000   F   F   F
  1.2763277400417183  6.6319934785854526 15.0000000000000000   F   F   F
  3.8289832201251550  6.6319934785854526 15.0000000000000000   F   F   F
  6.3816387002085921  6.6319934785854526 15.0000000000000000   F   F   F
  8.9342941802920279  6.6319934785854526 15.0000000000000000   F   F   F
  1.2763277400417183  0.7368881642872727 17.0842344717745505   F   F   F
  3.8289832201251550  0.7368881642872727 17.0842344717745505   F   F   F
  6.3816387002085921  0.7368881642872727 17.0842344717745505   F   F   F
  8.9342941802920279  0.7368881642872727 17.0842344717745505   F   F   F
  0.0000000000000000  2.9475526571490906 17.0842344717745505   F   F   F
  2.5526554800834367  2.9475526571490906 17.0842344717745505   F   F   F
  5.1053109601668734  2.9475526571490906 17.0842344717745505   F   F   F
  7.6579664402503100  2.9475526571490906 17.0842344717745505   F   F   F
  1.2763277400417183  5.1582171500109091 17.0842344717745505   F   F   F
  3.8289832201251550  5.1582171500109091 17.0842344717745505   F   F   F
  6.3816387002085921  5.1582171500109091 17.0842344717745505   F   F   F
  8.9342941802920279  5.1582171500109091 17.0842344717745505   F   F   F
  0.0000000000000000  7.3688816428727266 17.0842344717745505   F   F   F
  2.5526554800834367  7.3688816428727266 17.0842344717745505   F   F   F
  5.1053109601668734  7.3688816428727266 17.0842344717745505   F   F   F
  7.6579664402503100  7.3688816428727266 17.0842344717745505   F   F   F
  0.0013991215915568  1.4747620172535145 19.1649885628237620   T   T   T
  2.5510637015475854  1.4787787551131413 19.1604226874070633   T   T   T
  5.1057193317496354  1.4767758075630020 19.1632319638313611   T   T   T
  7.6616163771442247  1.4767656956279618 19.1587126354842638   T   T   T
  1.2761037198327774  3.6845166497684385 19.1585631737298527   T   T   T
  3.8490531076078258  3.6969003032001537 19.2057036934222651   T   T   T
  6.3683691380763925  3.6941461413184582 19.2034081846869817   T   T   T
  8.9356710878305350  3.6847274995960690 19.1589642980741210   T   T   T
  0.0007296594091432  5.8978477861746530 19.1667703040437090   T   T   T
  2.5490875881680037  5.8969801726569182 19.1507394476507891   T   T   T
  5.1094271790287822  5.8726423183500600 19.2005046416350211   T   T   T
  7.6591318618087243  5.8984376364957463 19.1622962561647014   T   T   T
  1.2779715713492072  8.1079557751510443 19.1666377282171290   T   T   T
  3.8317066026746147  8.1132571725434293 19.1551936682044612   T   T   T
  6.3798327688325438  8.1083956901052492 19.1624261599108827   T   T   T
  8.9355037305907281  8.1078023896836697 19.1658005405190970   T   T   T
  0.0025905864876898  0.0053221909547035 21.2548650619280366   T   T   T
  2.5491407455827866  0.0056607069893899 21.2557797457530704   T   T   T
  5.1051931005201912  8.8425345754073739 21.2591912229839437   T   T   T
  7.6658457840774377  0.0032317987890328 21.2576436267604763   T   T   T
  1.2764337611377590  2.2179095774188826 21.2548131560737481   T   T   T
  3.8206534557396692  2.1969578041846973 21.2398103303482202   T   T   T
  6.3921598567072193  2.1903145190628890 21.2311661581800344   T   T   T
  8.9378263179318829  2.2153951606061955 21.2529636244689115   T   T   T
  0.0044434474473248  4.4252188756502981 21.2570558408446466   T   T   T
  2.5352351944639029  4.4317365117417662 21.2322579055281189   T   T   T
  5.1004282865762587  4.4329263065838118 21.4333026353265126   T   T   T
  7.6838894532719237  4.4307329792414789 21.2326787675823354   T   T   T
  1.2752760938424730  6.6378589095324108 21.2594983081250817   T   T   T
  3.8146560613914486  6.6525013194809901 21.2094324433153538   T   T   T
  6.3930774854676677  6.6530074622635409 21.2400108818712354   T   T   T
  8.9409256342650067  6.6391576692956322 21.2578162442265040   T   T   T
  4.9676392776467129  4.5529414365065524 25.9549032398064661   T   T   T
  4.6663087126981369  4.8188829999207119 24.5222008844351755   T   T   T
  5.2832944675521363  4.2883808476447962 23.5782368097184367   T   T   T
  3.6674759002551189  5.6837180604607633 24.3515484406107063   T   T   T
  5.1821872751929039  5.5029284039788928 26.4558407864403407   T   T   T
  5.8043412211464309  3.8640466091543288 26.0475548035903230   T   T   T
  4.0736347294869333  4.1349038789637653 26.4291491143768909   T   T   T
  3.5365549267689476  5.7984406175697680 23.3658629110048679   T   T   T
