SO2_Pt100
 1.0000000000000000
     8.3155757467537992    0.0000000000000000    0.0000000000000000
     0.0000000000000000    8.3155757467537992    0.0000000000000000
     0.0000000000000000    0.0000000000000000   35.8800000000000026
 Pt  S   O  
  36   1   2
Selective dynamics
Cartesian
  1.3859292911256331  1.3859292911256331 15.0000000000000018   F   F   F
  4.1577878733768996  1.3859292911256331 15.0000000000000018   F   F   F
  6.9296464556281654  1.3859292911256331 15.0000000000000018   F   F   F
  1.3859292911256331  4.1577878733768996 15.0000000000000018   F   F   F
  4.1577878733768996  4.1577878733768996 15.0000000000000018   F   F   F
  6.9296464556281654  4.1577878733768996 15.0000000000000018   F   F   F
  1.3859292911256331  6.9296464556281654 15.0000000000000018   F   F   F
  4.1577878733768996  6.9296464556281654 15.0000000000000018   F   F   F
  6.9296464556281654  6.9296464556281654 15.0000000000000018   F   F   F
  0.0000000000000000  0.0000000000000000 16.9600000000000009   F   F   F
  2.7718585822512662  0.0000000000000000 16.9600000000000009   F   F   F
  5.5437171645025325  0.0000000000000000 16.9600000000000009   F   F   F
  0.0000000000000000  2.7718585822512662 16.9600000000000009   F   F   F
  2.7718585822512662  2.7718585822512662 16.9600000000000009   F   F   F
  5.5437171645025325  2.7718585822512662 16.9600000000000009   F   F   F
  0.0000000000000000  5.5437171645025325 16.9600000000000009   F   F   F
  2.7718585822512662  5.5437171645025325 16.9600000000000009   F   F   F
  5.5437171645025325  5.5437171645025325 16.9600000000000009   F   F   F
  1.3739160881274128  1.3940540947537916 18.9626330450997962   T   T   T
  4.1607875716837324  1.3836256852421973 18.9437933030065757   T   T   T
  6.9473395276537362  1.3956846850826115 18.9655796086336288   T   T   T
  1.3777308281156218  4.1590997072289779 18.9667079483848013   T   T   T
  4.1612520182130126  4.1590197677044376 18.9474270935633875   T   T   T
  6.9426052428070779  4.1591827895030269 18.9626237015057448   T   T   T
  1.3741113941759462  6.9247142349014368 18.9622856558977269   T   T   T
  4.1605369610944134  6.9336696067945667 18.9445228048869083   T   T   T
  6.9470922059521509  6.9234002166028912 18.9649511849334758   T   T   T
  0.0033064198691347  0.0046610182041027 20.9774022531267619   T   T   T
  2.7622666621515428  0.0018052884794771 20.9356571391394191   T   T   T
  5.5574407722034085  0.0019230614357112 20.9364956267898883   T   T   T
  0.0009998429084459  2.7216697974334854 21.0474252320335111   T   T   T
  2.7947788031538141  2.7544458305543089 20.9134456607010932   T   T   T
  5.5436263229521625  2.7662675822796317 20.9220492293395530   T   T   T
  8.3151765376958640  5.6044657665553483 21.0432251286264673   T   T   T
  2.7945794324938742  5.5646406185589452 20.9146040304738676   T   T   T
  5.5430314719417026  5.5533536824323333 20.9225380431355958   T   T   T
  0.1750653153663668  4.1660357006706938 22.8304521793974686   T   T   T
  7.3645315161393476  4.1655475674421840 23.7562903754428696   T   T   T
  1.5096808875089687  4.1694374349202192 23.4443931986416416   T   T   T
