CH3COOH_Cu110
 1.0000000000000000
    10.8300000000000001    0.0000000000000000    0.0000000000000000
     0.0000000000000000    5.1053109601668734    0.0000000000000000
     0.0000000000000000    0.0000000000000000   33.8289832201251528
 Cu  C   O   H  
  24   2   2   4
Selective dynamics
Cartesian
  1.8049999999999999  1.2763277400417183 14.9999999999999982   F   F   F
  5.4149999999999991  1.2763277400417183 14.9999999999999982   F   F   F
  9.0249999999999986  1.2763277400417183 14.9999999999999982   F   F   F
  1.8049999999999999  3.8289832201251550 14.9999999999999982   F   F   F
  5.4149999999999991  3.8289832201251550 14.9999999999999982   F   F   F
  9.0249999999999986  3.8289832201251550 14.9999999999999982   F   F   F
  0.0000000000000000  0.0000000000000000 16.2763277400417152   F   F   F
  3.6099999999999999  0.0000000000000000 16.2763277400417152   F   F   F
  7.2199999999999998  0.0000000000000000 16.2763277400417152   F   F   F
  0.0000000000000000  2.5526554800834367 16.2763277400417152   F   F   F
  3.6099999999999999  2.5526554800834367 16.2763277400417152   F   F   F
  7.2199999999999998  2.5526554800834367 16.2763277400417152   F   F   F
  1.8087628029612834  1.2835302182755470 17.6177617926795129   T   T   T
  5.4134485443012226  1.2823751093847973 17.6014284506558489   T   T   T
  9.0235479245994394  1.2736332345364583 17.6104592420058097   T   T   T
  1.8073100460802856  3.8217564362298075 17.6027678604127331   T   T   T
  5.4166167211115681  3.8224057350330312 17.5951221618497193   T   T   T
  9.0219034584916589  3.8308401764693381 17.6101100176296725   T   T   T
  0.0033068711819906  5.1030637738823970 18.7735039021595007   T   T   T
  3.6157295982603368  0.0012969046224750 18.7205752779490133   T   T   T
  7.2132083428541955  0.0002382010390288 18.7729912121903979   T   T   T
 10.8195959634771910  2.5558303342975379 18.7666815033845289   T   T   T
  3.6107819669497103  2.5531208716965534 18.8769662448054376   T   T   T
  7.2235122426266729  2.5525789860593635 18.7714480520153053   T   T   T
  2.9808750250547638  2.5094184869583769 23.2361132263954602   T   T   T
  2.8712261394664802  2.2414115280267661 21.7747857070337076   T   T   T
  3.6240402027621896  2.7599405365431986 20.9253965358298011   T   T   T
  1.8878102737538607  1.3981223500853217 21.4701165469892139   T   T   T
  2.0213929577240206  2.8916277750117385 23.6072742328654712   T   T   T
  3.7811201934650813  3.2248108413620611 23.4201728654817067   T   T   T
  3.1838355185316787  1.5707978591282055 23.7677477206724603   T   T   T
  1.8598987601952193  1.2889459633425460 20.4748247934063059   T   T   T
