NO_Rh111
 1.0000000000000000
    10.7565083554097622    0.0000000000000000    0.0000000000000000
     0.0000000000000000    9.3154094918044255    0.0000000000000000
     0.0000000000000000    0.0000000000000000   36.5869892211844387
 Rh  N   O  
  64   1   1
Selective dynamics
Cartesian
  0.0000000000000000  0.0000000000000000 15.0000000000000000   F   F   F
  2.6891270888524406  0.0000000000000000 15.0000000000000000   F   F   F
  5.3782541777048811  0.0000000000000000 15.0000000000000000   F   F   F
  8.0673812665573212  0.0000000000000000 15.0000000000000000   F   F   F
  1.3445635444262203  2.3288523729511064 15.0000000000000000   F   F   F
  4.0336906332786606  2.3288523729511064 15.0000000000000000   F   F   F
  6.7228177221311016  2.3288523729511064 15.0000000000000000   F   F   F
  9.4119448109835417  2.3288523729511064 15.0000000000000000   F   F   F
  0.0000000000000000  4.6577047459022127 15.0000000000000000   F   F   F
  2.6891270888524406  4.6577047459022127 15.0000000000000000   F   F   F
  5.3782541777048811  4.6577047459022127 15.0000000000000000   F   F   F
  8.0673812665573212  4.6577047459022127 15.0000000000000000   F   F   F
  1.3445635444262203  6.9865571188533195 15.0000000000000000   F   F   F
  4.0336906332786606  6.9865571188533195 15.0000000000000000   F   F   F
  6.7228177221311016  6.9865571188533195 15.0000000000000000   F   F   F
  9.4119448109835417  6.9865571188533195 15.0000000000000000   F   F   F
  1.3445635444262203  0.7762841243170354 17.1956630737281486   F   F   F
  4.0336906332786606  0.7762841243170354 17.1956630737281486   F   F   F
  6.7228177221311016  0.7762841243170354 17.1956630737281486   F   F   F
  9.4119448109835417  0.7762841243170354 17.1956630737281486   F   F   F
  0.0000000000000000  3.1051364972681417 17.1956630737281486   F   F   F
  2.6891270888524406  3.1051364972681417 17.1956630737281486   F   F   F
  5.3782541777048811  3.1051364972681417 17.1956630737281486   F   F   F
  8.0673812665573212  3.1051364972681417 17.1956630737281486   F   F   F
  1.3445635444262203  5.4339888702192489 17.1956630737281486   F   F   F
  4.0336906332786606  5.4339888702192489 17.1956630737281486   F   F   F
  6.7228177221311016  5.4339888702192489 17.1956630737281486   F   F   F
  9.4119448109835417  5.4339888702192489 17.1956630737281486   F   F   F
  0.0000000000000000  7.7628412431703548 17.1956630737281486   F   F   F
  2.6891270888524406  7.7628412431703548 17.1956630737281486   F   F   F
  5.3782541777048811  7.7628412431703548 17.1956630737281486   F   F   F
  8.0673812665573212  7.7628412431703548 17.1956630737281486   F   F   F
  0.0155205498153494  1.5541223362613865 19.4231839877046255   T   T   T
  2.6923348369484725  1.5547494677867226 19.3770190194135061   T   T   T
  5.3702908595459622  1.5539327094756668 19.4204617863476798   T   T   T
  8.0714990025770081  1.5535120196967716 19.4030214470627875   T   T   T
  1.3528069243956742  3.8736311028003860 19.4235508484312582   T   T   T
  4.0324231916934421  3.8739697974319012 19.4207351467683544   T   T   T
  6.7251414224756108  3.8797623186347918 19.4016405913089507   T   T   T
  9.4182987371705131  3.8794228524148777 19.4034089590910845   T   T   T
  0.0064812641000940  6.2110446789757061 19.4020711494096680   T   T   T
  2.6930387710680184  6.2144615644966335 19.4023921780048951   T   T   T
  5.3794003308785854  6.2111193326167804 19.4016631511267725   T   T   T
  8.0713083600592945  6.2102455971385488 19.4012363592156269   T   T   T
  1.3543013103778887  8.5505364668437878 19.4228543338635475   T   T   T
  4.0312814588984116  8.5509552985956976 19.4230514942386066   T   T   T
  6.7248347386775222  8.5414832591237353 19.3990042897470971   T   T   T
  9.4180427393138846  8.5413409794949100 19.4000636347164317   T   T   T
 10.7290746691717249  9.2987536590156292 21.5872970310185508   T   T   T
  2.6949391073611566  9.3096644655863265 21.6641682196145702   T   T   T
  5.4170135450170509  9.2986296270751065 21.5855369925778753   T   T   T
  8.0732489526431834  0.0040702847582067 21.5902232748979586   T   T   T
  1.3434827653201871  2.3360707013277993 21.6686802128044036   T   T   T
  4.0492833398100050  2.3377610287812902 21.6616179066716583   T   T   T
  6.7172509849230826  2.3340513605814337 21.5943456937078189   T   T   T
  9.4282363369299151  2.3342036127463950 21.5961357325244414   T   T   T
  0.0030064070067837  4.6485374038958227 21.5950823274015775   T   T   T
  2.6947958585110494  4.6969158040991372 21.5827425976881457   T   T   T
  5.3868053738995512  4.6486825895880113 21.5932271496032655   T   T   T
  8.0727145837426235  4.6600203188943059 21.5860005651456071   T   T   T
  1.3507350710284223  6.9972960009953242 21.5964989778629572   T   T   T
  4.0398442966957626  6.9980006944060476 21.5956185948865844   T   T   T
  6.7326150144190313  6.9841598112685208 21.5859896860616374   T   T   T
  9.4132510123503970  6.9842251893661391 21.5866797970406701   T   T   T
  2.7054332693978282  1.5575200419166462 22.9379877727489330   T   T   T
  2.7193770731234723  1.5622013451328218 24.1614262647147946   T   T   T
