C2H6_Cu100
 1.0000000000000000
    10.2106219203337467    0.0000000000000000    0.0000000000000000
     0.0000000000000000   10.2106219203337467    0.0000000000000000
     0.0000000000000000    0.0000000000000000   35.4149999999999991
 Cu  C   H  
  64   2   6
Selective dynamics
Cartesian
  1.2763277400417183  1.2763277400417183 15.0000000000000000   F   F   F
  3.8289832201251550  1.2763277400417183 15.0000000000000000   F   F   F
  6.3816387002085921  1.2763277400417183 15.0000000000000000   F   F   F
  8.9342941802920279  1.2763277400417183 15.0000000000000000   F   F   F
  1.2763277400417183  3.8289832201251550 15.0000000000000000   F   F   F
  3.8289832201251550  3.8289832201251550 15.0000000000000000   F   F   F
  6.3816387002085921  3.8289832201251550 15.0000000000000000   F   F   F
  8.9342941802920279  3.8289832201251550 15.0000000000000000   F   F   F
  1.2763277400417183  6.3816387002085921 15.0000000000000000   F   F   F
  3.8289832201251550  6.3816387002085921 15.0000000000000000   F   F   F
  6.3816387002085921  6.3816387002085921 15.0000000000000000   F   F   F
  8.9342941802920279  6.3816387002085921 15.0000000000000000   F   F   F
  1.2763277400417183  8.9342941802920279 15.0000000000000000   F   F   F
  3.8289832201251550  8.9342941802920279 15.0000000000000000   F   F   F
  6.3816387002085921  8.9342941802920279 15.0000000000000000   F   F   F
  8.9342941802920279  8.9342941802920279 15.0000000000000000   F   F   F
  0.0000000000000000  0.0000000000000000 16.8049999999999997   F   F   F
  2.5526554800834367  0.0000000000000000 16.8049999999999997   F   F   F
  5.1053109601668734  0.0000000000000000 16.8049999999999997   F   F   F
  7.6579664402503100  0.0000000000000000 16.8049999999999997   F   F   F
  0.0000000000000000  2.5526554800834367 16.8049999999999997   F   F   F
  2.5526554800834367  2.5526554800834367 16.8049999999999997   F   F   F
  5.1053109601668734  2.5526554800834367 16.8049999999999997   F   F   F
  7.6579664402503100  2.5526554800834367 16.8049999999999997   F   F   F
  0.0000000000000000  5.1053109601668734 16.8049999999999997   F   F   F
  2.5526554800834367  5.1053109601668734 16.8049999999999997   F   F   F
  5.1053109601668734  5.1053109601668734 16.8049999999999997   F   F   F
  7.6579664402503100  5.1053109601668734 16.8049999999999997   F   F   F
  0.0000000000000000  7.6579664402503100 16.8049999999999997   F   F   F
  2.5526554800834367  7.6579664402503100 16.8049999999999997   F   F   F
  5.1053109601668734  7.6579664402503100 16.8049999999999997   F   F   F
  7.6579664402503100  7.6579664402503100 16.8049999999999997   F   F   F
  1.2762508593855155  1.2763477068471789 18.6318449771681678   T   T   T
  3.8287953982957741  1.2764379053429544 18.6320948683995873   T   T   T
  6.3816817115671016  1.2762516787954941 18.6326533172205480   T   T   T
  8.9344261009887269  1.2764677685748593 18.6318762243170362   T   T   T
  1.2763643572082246  3.8289901645257811 18.6319462644657108   T   T   T
  3.8289155770180332  3.8290064624027766 18.6319215815921275   T   T   T
  6.3817236672577922  3.8289815218047742 18.6317660697371963   T   T   T
  8.9342322610286757  3.8289873267345755 18.6319359490543803   T   T   T
  1.2762827605594065  6.3814770550560223 18.6318832887887957   T   T   T
  3.8288397252092676  6.3815290053219176 18.6322865574983254   T   T   T
  6.3815921513931544  6.3814685994406437 18.6325149771903078   T   T   T
  8.9344927400447709  6.3814266383696721 18.6318941417273720   T   T   T
  1.2762094252174006  8.9344224695551606 18.6317293975278595   T   T   T
  3.8290958999398770  8.9341239028054336 18.6334311734530331   T   T   T
  6.3815620719153250  8.9344060552674662 18.6331176164674055   T   T   T
  8.9344628787283220  8.9343062839899758 18.6321971957659187   T   T   T
  0.0000524097573376 10.2104731665865511 20.4079724254576895   T   T   T
  2.5530210615551674 10.2105317177315538 20.4074804170885926   T   T   T
  5.1053369978740601 10.2104598023183684 20.4061176032381120   T   T   T
  7.6578009146530039 10.2105651348444137 20.4071221140391081   T   T   T
 10.2106130618984867  2.5526674342760804 20.4075798942533915   T   T   T
  2.5527215210027392  2.5524938338888297 20.4077483090598797   T   T   T
  5.1053597239415200  2.5526824161536217 20.4080490907344441   T   T   T
  7.6578377206577857  2.5524464677348067 20.4079556706091907   T   T   T
  0.0000189482419693  5.1052698490346105 20.4075337725812673   T   T   T
  2.5528803460865714  5.1055991351907783 20.4080377929020003   T   T   T
  5.1053723447457164  5.1058240230655532 20.4077606793887654   T   T   T
  7.6576028335706425  5.1057246514628254 20.4080509553738878   T   T   T
  0.0000301674139506  7.6581293579986038 20.4079358295186353   T   T   T
  2.5529440326527362  7.6577973658947727 20.4066391142407468   T   T   T
  5.1049552875800659  7.6577737464916229 20.4059078190430618   T   T   T
  7.6573038432165204  7.6580819839147827 20.4069937204315153   T   T   T
  6.0192837625943412  8.9891812624736502 23.9610061573856576   T   T   T
  4.8649657944772873  8.0230699583149701 24.2397778571519993   T   T   T
  6.9033075204569130  8.7608920642195258 24.5752004913836366   T   T   T
  6.3424875217773913  8.9437835212488022 22.9061195555108483   T   T   T
  5.7415152570089045 10.0336755111223823 24.1673043407223282   T   T   T
  5.1430417867932565  6.9845603986590534 24.0140389194222337   T   T   T
  3.9779091989885695  8.2696413326604539 23.6392011867525405   T   T   T
  4.5659202690803262  8.0600278166412131 25.2978923948714218   T   T   T
