H2S_Ir110
 1.0000000000000000
    11.5199999999999996    0.0000000000000000    0.0000000000000000
     0.0000000000000000    5.4305800795126853    0.0000000000000000
     0.0000000000000000    0.0000000000000000   34.0729350596345171
 Ir  S   H  
  24   1   2
Selective dynamics
Cartesian
  1.9199999999999999  1.3576450198781711 15.0000000000000018   F   F   F
  5.7599999999999989  1.3576450198781711 15.0000000000000018   F   F   F
  9.5999999999999996  1.3576450198781711 15.0000000000000018   F   F   F
  1.9199999999999999  4.0729350596345135 15.0000000000000018   F   F   F
  5.7599999999999989  4.0729350596345135 15.0000000000000018   F   F   F
  9.5999999999999996  4.0729350596345135 15.0000000000000018   F   F   F
  0.0000000000000000  0.0000000000000000 16.3576450198781735   F   F   F
  3.8399999999999999  0.0000000000000000 16.3576450198781735   F   F   F
  7.6799999999999997  0.0000000000000000 16.3576450198781735   F   F   F
  0.0000000000000000  2.7152900397563422 16.3576450198781735   F   F   F
  3.8399999999999999  2.7152900397563422 16.3576450198781735   F   F   F
  7.6799999999999997  2.7152900397563422 16.3576450198781735   F   F   F
  1.9122577771639708  1.3647661178254298 17.7605090560384831   T   T   T
  5.7776052255679629  1.3627509209593218 17.7682095520367156   T   T   T
  9.5926478684818441  1.3650911018112881 17.7736902715450498   T   T   T
  1.8995210036434429  4.0789929819417514 17.7330825573391770   T   T   T
  5.7759015310338899  4.0759997091091664 17.7476920619166805   T   T   T
  9.5942750259792398  4.0766662274614953 17.7852910865965228   T   T   T
  0.0042772835837850  0.0101797774554366 19.0125930757396304   T   T   T
  3.8342814897810760  0.0389222247663574 19.0400979321658390   T   T   T
  7.6751534472582206  0.0072192482401728 19.0028254094150562   T   T   T
  0.0011688067011214  2.7184774196139765 19.0109077459637597   T   T   T
  3.8347356029288897  2.6922320512048308 19.0382085833748427   T   T   T
  7.6688221470677691  2.7208596709862385 19.0792772650928804   T   T   T
  3.8697010970061885  4.0858937099625949 20.9184496045530821   T   T   T
  5.2120104083591992  4.0786559346904925 21.1934693910679393   T   T   T
  7.4878552571631953  2.6831436040161152 20.6800294254705257   T   T   T
