NO_Cu111
 1.0000000000000000
    10.2106219203337467    0.0000000000000000    0.0000000000000000
     0.0000000000000000    8.8426579714472719    0.0000000000000000
     0.0000000000000000    0.0000000000000000   36.2527034153236514
 Cu  N   O  
  64   1   1
Selective dynamics
Cartesian
  0.0000000000000000  0.0000000000000000 15.0000000000000000   F   F   F
  2.5526554800834367  0.0000000000000000 15.0000000000000000   F   F   F
  5.1053109601668734  0.0000000000000000 15.0000000000000000   F   F   F
  7.6579664402503100  0.0000000000000000 15.0000000000000000   F   F   F
  1.2763277400417183  2.2106644928618180 15.0000000000000000   F   F   F
  3.8289832201251550  2.2106644928618180 15.0000000000000000   F   F   F
  6.3816387002085921  2.2106644928618180 15.0000000000000000   F   F   F
  8.9342941802920279  2.2106644928618180 15.0000000000000000   F   F   F
  0.0000000000000000  4.4213289857236360 15.0000000000000000   F   F   F
  2.5526554800834367  4.4213289857236360 15.0000000000000000   F   F   F
  5.1053109601668734  4.4213289857236360 15.0000000000000000   F   F   F
  7.6579664402503100  4.4213289857236360 15.0000000000000000   F   F   F
  1.2763277400417183  6.6319934785854526 15.0000000000000000   F   F   F
  3.8289832201251550  6.6319934785854526 15.0000000000000000   F   F   F
  6.3816387002085921  6.6319934785854526 15.0000000000000000   F   F   F
  8.9342941802920279  6.6319934785854526 15.0000000000000000   F   F   F
  1.2763277400417183  0.7368881642872727 17.0842344717745505   F   F   F
  3.8289832201251550  0.7368881642872727 17.0842344717745505   F   F   F
  6.3816387002085921  0.7368881642872727 17.0842344717745505   F   F   F
  8.9342941802920279  0.7368881642872727 17.0842344717745505   F   F   F
  0.0000000000000000  2.9475526571490906 17.0842344717745505   F   F   F
  2.5526554800834367  2.9475526571490906 17.0842344717745505   F   F   F
  5.1053109601668734  2.9475526571490906 17.0842344717745505   F   F   F
  7.6579664402503100  2.9475526571490906 17.0842344717745505   F   F   F
  1.2763277400417183  5.1582171500109091 17.0842344717745505   F   F   F
  3.8289832201251550  5.1582171500109091 17.0842344717745505   F   F   F
  6.3816387002085921  5.1582171500109091 17.0842344717745505   F   F   F
  8.9342941802920279  5.1582171500109091 17.0842344717745505   F   F   F
  0.0000000000000000  7.3688816428727266 17.0842344717745505   F   F   F
  2.5526554800834367  7.3688816428727266 17.0842344717745505   F   F   F
  5.1053109601668734  7.3688816428727266 17.0842344717745505   F   F   F
  7.6579664402503100  7.3688816428727266 17.0842344717745505   F   F   F
  0.0008976977279515  1.4759661678376477 19.1625703137836609   T   T   T
  2.5490462472103168  1.4746847271637125 19.1619833285126120   T   T   T
  5.1025669130673368  1.4734906125450025 19.1570664009119085   T   T   T
  7.6608576658728991  1.4729105248786172 19.1569048420904267   T   T   T
  1.2736058358198430  3.6792366490345332 19.1599398201422986   T   T   T
  3.8421214418188350  3.6925614889550049 19.1849640998139570   T   T   T
  6.3812898392699351  3.6854458430868013 19.1696722801377177   T   T   T
  8.9156626237813761  3.6952746564577885 19.1900825572758862   T   T   T
  0.0026750829366256  5.8908881256507462 19.1601335222556024   T   T   T
  2.5495220331021580  5.8903676599329104 19.1593102971744891   T   T   T
  5.1051128848327298  5.8964207888717475 19.1685815998887605   T   T   T
  7.6572120224635452  5.8961226654334293 19.1723864739371734   T   T   T
  1.2761847419604868  8.1019220800741500 19.1686210482309995   T   T   T
  3.8281597044619078  8.1106277018867470 19.1594331780206062   T   T   T
  6.3817949384758279  8.0905908001526505 19.1898069352645848   T   T   T
  8.9352763456369804  8.1096414787524456 19.1599664677721790   T   T   T
  0.0031702631140041  0.0077690361829645 21.2579103702883678   T   T   T
  2.5482983839057605  0.0052576385660818 21.2593168304227937   T   T   T
  5.0938784887898283  0.0038754388289802 21.2578613714037274   T   T   T
  7.6692186611833817  0.0034662747091318 21.2577263955276088   T   T   T
  1.2738037365309700  2.2088136929698048 21.2559793013915979   T   T   T
  3.8210523355643371  2.2009009122322567 21.2519375839025955   T   T   T
  6.3803421749923981  2.1761597884318697 21.2250540719781888   T   T   T
  8.9364110472597389  2.2049185249637215 21.2545840819232694   T   T   T
  0.0047914664365357  4.4208974616491989 21.2549855781782000   T   T   T
  2.5365157610504254  4.4190912486737002 21.2519580933188728   T   T   T
  5.0569281678536502  4.3972357149163415 21.3093769941590523   T   T   T
  7.6905262240135492  4.4029989997135557 21.3310551681819547   T   T   T
  1.2759501457423668  6.6290353860964446 21.2630011838641728   T   T   T
  3.7933895492834120  6.6502933165977387 21.2247394954701321   T   T   T
  6.3795665602789624  6.6762451220130448 21.3208479153983355   T   T   T
  8.9667095838637252  6.6505137853690748 21.2286845845497183   T   T   T
  6.3518577992731124  5.1570648455858752 22.6002322352752394   T   T   T
  6.3224989896386781  5.1559293729333167 23.8187803557471902   T   T   T
