H2O_Cu111
 1.0000000000000000
    10.2106219203337467    0.0000000000000000    0.0000000000000000
     0.0000000000000000    8.8426579714472719    0.0000000000000000
     0.0000000000000000    0.0000000000000000   36.2527034153236514
 Cu  O   H  
  64   1   2
Selective dynamics
Cartesian
  0.0000000000000000  0.0000000000000000 15.0000000000000000   F   F   F
  2.5526554800834367  0.0000000000000000 15.0000000000000000   F   F   F
  5.1053109601668734  0.0000000000000000 15.0000000000000000   F   F   F
  7.6579664402503100  0.0000000000000000 15.0000000000000000   F   F   F
  1.2763277400417183  2.2106644928618180 15.0000000000000000   F   F   F
  3.8289832201251550  2.2106644928618180 15.0000000000000000   F   F   F
  6.3816387002085921  2.2106644928618180 15.0000000000000000   F   F   F
  8.9342941802920279  2.2106644928618180 15.0000000000000000   F   F   F
  0.0000000000000000  4.4213289857236360 15.0000000000000000   F   F   F
  2.5526554800834367  4.4213289857236360 15.0000000000000000   F   F   F
  5.1053109601668734  4.4213289857236360 15.0000000000000000   F   F   F
  7.6579664402503100  4.4213289857236360 15.0000000000000000   F   F   F
  1.2763277400417183  6.6319934785854526 15.0000000000000000   F   F   F
  3.8289832201251550  6.6319934785854526 15.0000000000000000   F   F   F
  6.3816387002085921  6.6319934785854526 15.0000000000000000   F   F   F
  8.9342941802920279  6.6319934785854526 15.0000000000000000   F   F   F
  1.2763277400417183  0.7368881642872727 17.0842344717745505   F   F   F
  3.8289832201251550  0.7368881642872727 17.0842344717745505   F   F   F
  6.3816387002085921  0.7368881642872727 17.0842344717745505   F   F   F
  8.9342941802920279  0.7368881642872727 17.0842344717745505   F   F   F
  0.0000000000000000  2.9475526571490906 17.0842344717745505   F   F   F
  2.5526554800834367  2.9475526571490906 17.0842344717745505   F   F   F
  5.1053109601668734  2.9475526571490906 17.0842344717745505   F   F   F
  7.6579664402503100  2.9475526571490906 17.0842344717745505   F   F   F
  1.2763277400417183  5.1582171500109091 17.0842344717745505   F   F   F
  3.8289832201251550  5.1582171500109091 17.0842344717745505   F   F   F
  6.3816387002085921  5.1582171500109091 17.0842344717745505   F   F   F
  8.9342941802920279  5.1582171500109091 17.0842344717745505   F   F   F
  0.0000000000000000  7.3688816428727266 17.0842344717745505   F   F   F
  2.5526554800834367  7.3688816428727266 17.0842344717745505   F   F   F
  5.1053109601668734  7.3688816428727266 17.0842344717745505   F   F   F
  7.6579664402503100  7.3688816428727266 17.0842344717745505   F   F   F
 10.2105742315388923  1.4737313256507989 19.1679746746400035   T   T   T
  2.5526960824348426  1.4737531940993704 19.1681930417908504   T   T   T
  5.1052580196074331  1.4737916404024285 19.1682463928972382   T   T   T
  7.6580008821523444  1.4737652964449739 19.1680063579678936   T   T   T
  1.2763189393793295  3.6845054972656026 19.1679816348659529   T   T   T
  3.8289588731345110  3.6843973971775554 19.1682052702159176   T   T   T
  6.3816723779404985  3.6844431422240325 19.1680185358886668   T   T   T
  8.9342990470245791  3.6844313113074043 19.1680264729921781   T   T   T
 10.2105763524630735  5.8950873156479107 19.1679964023424532   T   T   T
  2.5526493382671709  5.8951044223888456 19.1680175135625710   T   T   T
  5.1053626147494509  5.8951245616557815 19.1679789548921171   T   T   T
  7.6579666131985755  5.8951069004003962 19.1680017608000171   T   T   T
  1.2763101819652329  8.1057968359073023 19.1680802285054348   T   T   T
  3.8289653259094063  8.1058064654268254 19.1682137910724144   T   T   T
  6.3816878277238649  8.1057356238430032 19.1679273619098787   T   T   T
  8.9342796428272671  8.1057719010093034 19.1680091746066772   T   T   T
  0.0000088298360684  0.0000695583942745 21.2530871469400395   T   T   T
  2.5525377999856396  8.8424228476479563 21.2526168551168979   T   T   T
  5.1052820887147039  8.8426482942872724 21.2528051434756016   T   T   T
  7.6578113156498651  0.0000727088855846 21.2531806713109184   T   T   T
  1.2762715877298993  2.2106741709531397 21.2527572107507297   T   T   T
  3.8291205323564732  2.2108567400333055 21.2527229566000031   T   T   T
  6.3816417768726303  2.2106140779627199 21.2530683368849544   T   T   T
  8.9344667017719885  2.2105868104010269 21.2531901801676177   T   T   T
  0.0001370698479669  4.4212419195891979 21.2531912917942449   T   T   T
  2.5525966598051859  4.4213156250897221 21.2530545885414597   T   T   T
  5.1052965071181875  4.4212895424696974 21.2530067466604571   T   T   T
  7.6579508616899767  4.4213271325846293 21.2530479636980658   T   T   T
  1.2763608319950086  6.6320670604129912 21.2530538063901524   T   T   T
  3.8290051970295660  6.6320542921268437 21.2530891167138982   T   T   T
  6.3814923700872193  6.6320888746752189 21.2531966714327538   T   T   T
  8.9343135709469106  6.6319805104108713 21.2530385391393573   T   T   T
  3.1743583625380172  1.1977632044197977 24.4996526735380549   T   T   T
  3.7701008589539353  0.7358805778238616 23.8808023496103878   T   T   T
  2.4859687209818864  1.5507750347715807 23.9058095598296418   T   T   T
