CH3OH_Pd110
 1.0000000000000000
    11.6699999999999999    0.0000000000000000    0.0000000000000000
     0.0000000000000000    5.5012907576313399    0.0000000000000000
     0.0000000000000000    0.0000000000000000   34.1259680682235071
 Pd  C   O   H  
  24   1   1   4
Selective dynamics
Cartesian
  1.9449999999999998  1.3753226894078348 14.9999999999999929   F   F   F
  5.8349999999999991  1.3753226894078348 14.9999999999999929   F   F   F
  9.7249999999999996  1.3753226894078348 14.9999999999999929   F   F   F
  1.9449999999999998  4.1259680682235054 14.9999999999999929   F   F   F
  5.8349999999999991  4.1259680682235054 14.9999999999999929   F   F   F
  9.7249999999999996  4.1259680682235054 14.9999999999999929   F   F   F
  0.0000000000000000  0.0000000000000000 16.3753226894078345   F   F   F
  3.8899999999999997  0.0000000000000000 16.3753226894078345   F   F   F
  7.7799999999999994  0.0000000000000000 16.3753226894078345   F   F   F
  0.0000000000000000  2.7506453788156695 16.3753226894078345   F   F   F
  3.8899999999999997  2.7506453788156695 16.3753226894078345   F   F   F
  7.7799999999999994  2.7506453788156695 16.3753226894078345   F   F   F
  1.9407894301471182  1.3793819477237139 17.8069659476942057   T   T   T
  5.8441267532964538  1.3762527387947439 17.8189864315226671   T   T   T
  9.7288136888329113  1.3717078436835122 17.8212508959513549   T   T   T
  1.9488923823160667  4.1200148941526322 17.8150020664559570   T   T   T
  5.8389092800952804  4.1256481983026907 17.8185666659260065   T   T   T
  9.7256544495022528  4.1270351404326995 17.8237340597004703   T   T   T
  0.0083531253145794  5.4992082418826369 19.1700677010903711   T   T   T
  3.8781537191088273  0.0031074920085519 19.1288811454104888   T   T   T
  7.7770843761964450  5.4998726207919999 19.1728374916692204   T   T   T
  0.0069567840930203  2.7512068953572202 19.1692522282726401   T   T   T
  3.8409996236442683  2.7461062357666126 19.2006546184500735   T   T   T
  7.7951763150571738  2.7500153172580473 19.1620133097303693   T   T   T
  4.6560107249197076  3.7840817342543587 22.0316341472823964   T   T   T
  4.9657425811974569  2.7028150613183541 21.1282525028806383   T   T   T
  3.5874231667819485  3.7363486341072396 22.2586863586058001   T   T   T
  5.8932116498915610  2.8076266800037497 20.7936420704687421   T   T   T
  5.2232162720913848  3.6724655557889232 22.9652462920939939   T   T   T
  4.8885067315672686  4.7654074372634225 21.5842238489018854   T   T   T
