C2H4_Au111
 1.0000000000000000
     8.6549870017233435    0.0000000000000000    0.0000000000000000
     4.3274935008616717    7.4954386129165247    0.0000000000000000
     0.0000000000000000    0.0000000000000000   37.0667672948810178
 Au  C   H  
  36   2   4
Selective dynamics
Cartesian
  0.0000000000000000  0.0000000000000000 15.0000000000000000   F   F   F
  2.8849956672411143  0.0000000000000000 15.0000000000000000   F   F   F
  5.7699913344822287  0.0000000000000000 15.0000000000000000   F   F   F
  1.4424978336205572  2.4984795376388416 15.0000000000000000   F   F   F
  4.3274935008616717  2.4984795376388416 15.0000000000000000   F   F   F
  7.2124891681027856  2.4984795376388416 15.0000000000000000   F   F   F
  2.8849956672411143  4.9969590752776831 15.0000000000000000   F   F   F
  5.7699913344822287  4.9969590752776831 15.0000000000000000   F   F   F
  8.6549870017233435  4.9969590752776831 15.0000000000000000   F   F   F
  1.4424978336205572  0.8328265125462805 17.3555890982936738   F   F   F
  4.3274935008616717  0.8328265125462805 17.3555890982936738   F   F   F
  7.2124891681027865  0.8328265125462805 17.3555890982936738   F   F   F
  2.8849956672411143  3.3313060501851219 17.3555890982936738   F   F   F
  5.7699913344822287  3.3313060501851219 17.3555890982936738   F   F   F
  8.6549870017233435  3.3313060501851219 17.3555890982936738   F   F   F
  4.3274935008616717  5.8297855878239639 17.3555890982936738   F   F   F
  7.2124891681027856  5.8297855878239639 17.3555890982936738   F   F   F
 10.0974848353439004  5.8297855878239639 17.3555890982936738   F   F   F
  8.6549390592007214  1.6652962311189226 19.8056662654668116   T   T   T
  2.8852269091246865  1.6656910925648591 19.8050802411635232   T   T   T
  5.7698776074218712  1.6657532427959805 19.8053261997830994   T   T   T
 10.0973910842123757  4.1642137653344191 19.8050977815173823   T   T   T
  4.3274645070034898  4.1639049518934623 19.8048573287094705   T   T   T
  7.2124506401907134  4.1641667178943793 19.8050219996155867   T   T   T
 11.5404069307042896  6.6627902048460887 19.8059104375961645   T   T   T
  5.7697997158909979  6.6626655611469374 19.8059670024614576   T   T   T
  8.6549501730372249  6.6625770417518924 19.8051450896805008   T   T   T
  0.0002677257924619  0.0004408646500548 22.3150936194656140   T   T   T
  2.8844775675746215  0.0003117460772740 22.3172851684703986   T   T   T
  5.7700435225706954  0.0002646723286255 22.3174940866315481   T   T   T
  1.4422837176529546  2.4980951442473676 22.3168808814498689   T   T   T
  4.3273686625944734  2.4981203799312710 22.3189172576302575   T   T   T
  7.2129256356751554  2.4982179292525215 22.3169312199774872   T   T   T
 11.5398887219677295  4.9970365250042228 22.3175837742915277   T   T   T
  5.7702586025948319  4.9972491237423666 22.3176833084391468   T   T   T
  8.6547906221272548  4.9967888259027751 22.3185341676548603   T   T   T
  8.2848050388652723  0.7540958357678498 25.8479272991609967   T   T   T
  0.7661762634619453  0.0555128744637129 25.8799061351566522   T   T   T
  8.2672066267044428  1.7888816412666466 25.5037952247730360   T   T   T
  7.3390539425137504  0.3110989702111136 26.1613765284883186   T   T   T
  1.7106302282201247  0.4986158777241595 25.5631312151438550   T   T   T
  5.1110731506625591  6.5158301615310803 26.2211016227406226   T   T   T
