CH3_Ag100
 1.0000000000000000
     8.6762002051589384    0.0000000000000000    0.0000000000000000
     0.0000000000000000    8.6762002051589384    0.0000000000000000
     0.0000000000000000    0.0000000000000000   36.1349999999999980
 Ag  C   H  
  36   1   3
Selective dynamics
Cartesian
  1.4460333675264894  1.4460333675264894 15.0000000000000000   F   F   F
  4.3381001025794692  1.4460333675264894 15.0000000000000000   F   F   F
  7.2301668376324475  1.4460333675264894 15.0000000000000000   F   F   F
  1.4460333675264894  4.3381001025794692 15.0000000000000000   F   F   F
  4.3381001025794692  4.3381001025794692 15.0000000000000000   F   F   F
  7.2301668376324475  4.3381001025794692 15.0000000000000000   F   F   F
  1.4460333675264894  7.2301668376324475 15.0000000000000000   F   F   F
  4.3381001025794692  7.2301668376324475 15.0000000000000000   F   F   F
  7.2301668376324475  7.2301668376324475 15.0000000000000000   F   F   F
  0.0000000000000000  0.0000000000000000 17.0450000000000017   F   F   F
  2.8920667350529787  0.0000000000000000 17.0450000000000017   F   F   F
  5.7841334701059575  0.0000000000000000 17.0450000000000017   F   F   F
  0.0000000000000000  2.8920667350529787 17.0450000000000017   F   F   F
  2.8920667350529787  2.8920667350529787 17.0450000000000017   F   F   F
  5.7841334701059575  2.8920667350529787 17.0450000000000017   F   F   F
  0.0000000000000000  5.7841334701059575 17.0450000000000017   F   F   F
  2.8920667350529787  5.7841334701059575 17.0450000000000017   F   F   F
  5.7841334701059575  5.7841334701059575 17.0450000000000017   F   F   F
  1.4476576671034933  1.4475025670589010 19.1542370628029595   T   T   T
  4.3544635176820661  1.4631554987814559 19.1776849646296910   T   T   T
  7.2144031046046333  1.4610939925751432 19.1787608504484979   T   T   T
  1.4468059605033279  4.3384020897057356 19.1530554102406967   T   T   T
  4.3511766454065439  4.3238026320655818 19.1679490026716586   T   T   T
  7.2156417046082151  4.3241831679475435 19.1693672330225802   T   T   T
  1.4486186081082029  7.2329960585838249 19.1469870564007891   T   T   T
  4.3403170403219749  7.2290986117829537 19.1536720197800392   T   T   T
  7.2308696010611744  7.2281919182160470 19.1538782719770566   T   T   T
  0.0059181335262898  8.6727318051216447 21.2193764439390513   T   T   T
  2.8935427025379492  8.6761939410171127 21.2211731319412920   T   T   T
  5.7870025483326257  8.6608287230769818 21.2353860376261032   T   T   T
  0.0123254518272576  2.8939328515838207 21.2328101763193757   T   T   T
  2.8678346834086770  2.8958145483864164 21.2396425465036316   T   T   T
  5.7701132274010671  2.9039852877555177 21.4149560954567271   T   T   T
  0.0067267714074468  5.7886529836694738 21.2151770976431138   T   T   T
  2.8902554948989061  5.7891622634885946 21.2182415825837190   T   T   T
  5.7850440375767453  5.8050725349480166 21.2369772874754545   T   T   T
  5.8906789303214877  3.0851314847824631 23.5654104914883114   T   T   T
  6.2971136631304123  4.0727797777910055 23.8010521025435153   T   T   T
  4.8643926863366831  2.9615820867854672 23.9222068988035197   T   T   T
  6.5505999479605235  2.2751599480841578 23.8885094042381674   T   T   T
