HCOOH_Au111
 1.0000000000000000
     8.6549870017233435    0.0000000000000000    0.0000000000000000
     4.3274935008616717    7.4954386129165247    0.0000000000000000
     0.0000000000000000    0.0000000000000000   37.0667672948810178
 Au  O   C   H  
  36   2   1   2
Selective dynamics
Cartesian
  0.0000000000000000  0.0000000000000000 15.0000000000000000   F   F   F
  2.8849956672411143  0.0000000000000000 15.0000000000000000   F   F   F
  5.7699913344822287  0.0000000000000000 15.0000000000000000   F   F   F
  1.4424978336205572  2.4984795376388416 15.0000000000000000   F   F   F
  4.3274935008616717  2.4984795376388416 15.0000000000000000   F   F   F
  7.2124891681027856  2.4984795376388416 15.0000000000000000   F   F   F
  2.8849956672411143  4.9969590752776831 15.0000000000000000   F   F   F
  5.7699913344822287  4.9969590752776831 15.0000000000000000   F   F   F
  8.6549870017233435  4.9969590752776831 15.0000000000000000   F   F   F
  1.4424978336205572  0.8328265125462805 17.3555890982936738   F   F   F
  4.3274935008616717  0.8328265125462805 17.3555890982936738   F   F   F
  7.2124891681027865  0.8328265125462805 17.3555890982936738   F   F   F
  2.8849956672411143  3.3313060501851219 17.3555890982936738   F   F   F
  5.7699913344822287  3.3313060501851219 17.3555890982936738   F   F   F
  8.6549870017233435  3.3313060501851219 17.3555890982936738   F   F   F
  4.3274935008616717  5.8297855878239639 17.3555890982936738   F   F   F
  7.2124891681027856  5.8297855878239639 17.3555890982936738   F   F   F
 10.0974848353439004  5.8297855878239639 17.3555890982936738   F   F   F
  8.6548429957554180  1.6657368211424435 19.8056531623074861   T   T   T
  2.8850428348973893  1.6644584293216627 19.8075298563678999   T   T   T
  5.7698908134647882  1.6660668202293081 19.8071979583962374   T   T   T
 10.0977519234431004  4.1637108766298798 19.8070100389804580   T   T   T
  4.3271512129440746  4.1641386394503792 19.8054491397160142   T   T   T
  7.2126817826158627  4.1643799986576093 19.8069749907455268   T   T   T
 11.5404006260466776  6.6622984997042831 19.8076451966171199   T   T   T
  5.7706785527430240  6.6628551991708918 19.8092557727878358   T   T   T
  8.6540209859366755  6.6630134086492738 19.8140358583386238   T   T   T
 12.9809873974960936  7.4949170778687302 22.3145002460410993   T   T   T
  7.2126825290989958  7.4934279376117958 22.3148104067636410   T   T   T
  5.7722789604608264  0.0006543797147244 22.3089456180567645   T   T   T
  1.4429956140505200  2.4971631143895041 22.3188057248971852   T   T   T
  4.3309573678114672  2.5015487116558339 22.3099079871607131   T   T   T
  7.2123023875778856  2.4993432064136152 22.3151476814657101   T   T   T
 11.5392909109622490  4.9986245378172089 22.3140672399768860   T   T   T
  5.7680941466645113  4.9958419783280963 22.3113611642795817   T   T   T
  8.6570225835270644  4.9934410573320775 22.3095325368604271   T   T   T
  2.2548247180869039  1.7253101700032827 25.6768333550936063   T   T   T
  7.6465967357401876  7.1973968177656085 25.5592845524876324   T   T   T
  2.8565989718845199  0.6364692755908522 26.1827216113497059   T   T   T
  2.2535065954782105  1.6264869382257630 24.6876831805605690   T   T   T
  2.8745080224796826  0.7096279642369294 27.2804022051525976   T   T   T
