CH3CHO_Ag111
 1.0000000000000000
     8.6762002051589384    0.0000000000000000    0.0000000000000000
     4.3381001025794710    7.5138097859873962    0.0000000000000000
     0.0000000000000000    0.0000000000000000   37.0840878029567094
 Ag  C   O   H  
  36   2   1   4
Selective dynamics
Cartesian
  0.0000000000000000  0.0000000000000000 14.9999999999999982   F   F   F
  2.8920667350529787  0.0000000000000000 14.9999999999999982   F   F   F
  5.7841334701059575  0.0000000000000000 14.9999999999999982   F   F   F
  1.4460333675264903  2.5046032619957987 14.9999999999999982   F   F   F
  4.3381001025794692  2.5046032619957987 14.9999999999999982   F   F   F
  7.2301668376324475  2.5046032619957987 14.9999999999999982   F   F   F
  2.8920667350529805  5.0092065239915975 14.9999999999999982   F   F   F
  5.7841334701059592  5.0092065239915975 14.9999999999999982   F   F   F
  8.6762002051589384  5.0092065239915975 14.9999999999999982   F   F   F
  1.4460333675264898  0.8348677539985995 17.3613626009855686   F   F   F
  4.3381001025794683  0.8348677539985995 17.3613626009855686   F   F   F
  7.2301668376324484  0.8348677539985995 17.3613626009855686   F   F   F
  2.8920667350529801  3.3394710159943979 17.3613626009855686   F   F   F
  5.7841334701059592  3.3394710159943979 17.3613626009855686   F   F   F
  8.6762002051589384  3.3394710159943979 17.3613626009855686   F   F   F
  4.3381001025794710  5.8440742779901944 17.3613626009855686   F   F   F
  7.2301668376324493  5.8440742779901944 17.3613626009855686   F   F   F
 10.1222335726854276  5.8440742779901944 17.3613626009855686   F   F   F
  8.6805472673913275  1.6713749304263505 19.7768418190594666   T   T   T
  2.8897388836797351  1.6712604165911482 19.7809618730251060   T   T   T
  5.7839530093340441  1.6687145051962833 19.7669728633529225   T   T   T
 10.1229780607660711  4.1700292188287600 19.7767930290690153   T   T   T
  4.3369249162108856  4.1734319068432288 19.7706484379745930   T   T   T
  7.2301972993113850  4.1744088507440003 19.7660394087047528   T   T   T
 11.5674739195335228  6.6798192430856691 19.7644614596415096   T   T   T
  5.7838485140219786  6.6795652750557544 19.7685596076831445   T   T   T
  8.6771794920229830  6.6794600614218833 19.7662811339399980   T   T   T
 13.0119759916347526  7.5121115098183555 22.1842777177662818   T   T   T
  7.2330063977223764  7.5030777011342487 22.1783438052351549   T   T   T
  5.7836069842654840  0.0003170552536948 22.1862919987247906   T   T   T
 10.1116566559571393  2.5095547228533999 22.1938290435195036   T   T   T
  4.3506744443262804  2.5065863881442043 22.1779161879784468   T   T   T
  7.2295091745468500  2.5041976924361466 22.1837519602157158   T   T   T
 11.5691710505759513  5.0151318379709675 22.1802515871768726   T   T   T
  5.7840269072624029  5.0095720551252283 22.1858211651402790   T   T   T
  8.6759641364198394  5.0110026104904932 22.1838467132854085   T   T   T
  9.4801334696025918  2.9736684488148675 26.5846405981647678   T   T   T
  2.0627146067132855  2.3569123482569472 26.0742348668546953   T   T   T
  2.3235845962573300  2.1765263564145472 24.8859928983794774   T   T   T
  9.7122325383335042  3.8611424017011684 27.1933520198753698   T   T   T
  8.8195974162169364  3.2421637872869065 25.7569574284987759   T   T   T
  8.9706558270728518  2.2819886136753889 27.2731171822805720   T   T   T
  2.8073215016250548  2.0455623667039706 26.8410909798389952   T   T   T
