CO2_Cu100
 1.0000000000000000
    10.2106219203337467    0.0000000000000000    0.0000000000000000
     0.0000000000000000   10.2106219203337467    0.0000000000000000
     0.0000000000000000    0.0000000000000000   35.4149999999999991
 Cu  C   O  
  64   1   2
Selective dynamics
Cartesian
  1.2763277400417183  1.2763277400417183 15.0000000000000000   F   F   F
  3.8289832201251550  1.2763277400417183 15.0000000000000000   F   F   F
  6.3816387002085921  1.2763277400417183 15.0000000000000000   F   F   F
  8.9342941802920279  1.2763277400417183 15.0000000000000000   F   F   F
  1.2763277400417183  3.8289832201251550 15.0000000000000000   F   F   F
  3.8289832201251550  3.8289832201251550 15.0000000000000000   F   F   F
  6.3816387002085921  3.8289832201251550 15.0000000000000000   F   F   F
  8.9342941802920279  3.8289832201251550 15.0000000000000000   F   F   F
  1.2763277400417183  6.3816387002085921 15.0000000000000000   F   F   F
  3.8289832201251550  6.3816387002085921 15.0000000000000000   F   F   F
  6.3816387002085921  6.3816387002085921 15.0000000000000000   F   F   F
  8.9342941802920279  6.3816387002085921 15.0000000000000000   F   F   F
  1.2763277400417183  8.9342941802920279 15.0000000000000000   F   F   F
  3.8289832201251550  8.9342941802920279 15.0000000000000000   F   F   F
  6.3816387002085921  8.9342941802920279 15.0000000000000000   F   F   F
  8.9342941802920279  8.9342941802920279 15.0000000000000000   F   F   F
  0.0000000000000000  0.0000000000000000 16.8049999999999997   F   F   F
  2.5526554800834367  0.0000000000000000 16.8049999999999997   F   F   F
  5.1053109601668734  0.0000000000000000 16.8049999999999997   F   F   F
  7.6579664402503100  0.0000000000000000 16.8049999999999997   F   F   F
  0.0000000000000000  2.5526554800834367 16.8049999999999997   F   F   F
  2.5526554800834367  2.5526554800834367 16.8049999999999997   F   F   F
  5.1053109601668734  2.5526554800834367 16.8049999999999997   F   F   F
  7.6579664402503100  2.5526554800834367 16.8049999999999997   F   F   F
  0.0000000000000000  5.1053109601668734 16.8049999999999997   F   F   F
  2.5526554800834367  5.1053109601668734 16.8049999999999997   F   F   F
  5.1053109601668734  5.1053109601668734 16.8049999999999997   F   F   F
  7.6579664402503100  5.1053109601668734 16.8049999999999997   F   F   F
  0.0000000000000000  7.6579664402503100 16.8049999999999997   F   F   F
  2.5526554800834367  7.6579664402503100 16.8049999999999997   F   F   F
  5.1053109601668734  7.6579664402503100 16.8049999999999997   F   F   F
  7.6579664402503100  7.6579664402503100 16.8049999999999997   F   F   F
  1.2763585029168556  1.2763276497987677 18.6316064492511231   T   T   T
  3.8290236910060496  1.2763292869301561 18.6315238594478707   T   T   T
  6.3815995321922818  1.2763297434972301 18.6315240639114919   T   T   T
  8.9342624347491526  1.2763282548794601 18.6316036162990528   T   T   T
  1.2762468543612848  3.8290386330667663 18.6318359775110700   T   T   T
  3.8289743328237646  3.8289730590031148 18.6315487794352315   T   T   T
  6.3816480292356674  3.8289701913112859 18.6315498866034162   T   T   T
  8.9343752547452873  3.8290404950635497 18.6318395503329803   T   T   T
  1.2763173496638929  6.3816387899426656 18.6319530291922888   T   T   T
  3.8289891225632178  6.3816377174797898 18.6315021780516332   T   T   T
  6.3816347564608220  6.3816372562851349 18.6315030002867417   T   T   T
  8.9343073685172794  6.3816383399670080 18.6319583512437177   T   T   T
  1.2762562001005349  8.9342537195261862 18.6318135586274920   T   T   T
  3.8289697073893727  8.9343031922998382 18.6315534626969779   T   T   T
  6.3816489398094447  8.9343065957932772 18.6315482454059591   T   T   T
  8.9343711113277120  8.9342542288790625 18.6318183361795739   T   T   T
 10.2106218042338153  0.0000631880351233 20.4062142215495754   T   T   T
  2.5525735968569427 10.2105327097998533 20.4065391552785158   T   T   T
  5.1053102156432990  0.0000002661781278 20.4064480124537582   T   T   T
  7.6580540653762377 10.2105297765975216 20.4065446798069452   T   T   T
  0.0000006946884698  2.5526099046379627 20.4062365622875355   T   T   T
  2.5525702511740924  2.5527454564810372 20.4065400986112451   T   T   T
  5.1053112743883489  2.5526536217939553 20.4064497270190124   T   T   T
  7.6580482660309359  2.5527407013337009 20.4065376748695293   T   T   T
  0.0000009565919188  5.1051578256500072 20.4059877373017393   T   T   T
  2.5526306456804591  5.1054214716352249 20.4064592807773941   T   T   T
  5.1053102520218081  5.1053107251501908 20.4064441344534835   T   T   T
  7.6579992926478599  5.1054239410690627 20.4064670183535632   T   T   T
 10.2106157415046415  7.6581127979639234 20.4058962508202804   T   T   T
  2.5526350369364006  7.6578627966602726 20.4064402313588324   T   T   T
  5.1053106247799471  7.6579669494935656 20.4064448045692295   T   T   T
  7.6580052179344431  7.6578621939086817 20.4064701994209301   T   T   T
  0.0225546962317895  6.4405584044261222 23.9701557212192142   T   T   T
  0.0093954747967661  5.2648396847801111 23.9764108622569623   T   T   T
  0.0356966201868277  7.6160536176225246 23.9685362814854450   T   T   T
