H2O_Pd100
 1.0000000000000000
     8.2519361364470107    0.0000000000000000    0.0000000000000000
     0.0000000000000000    8.2519361364470107    0.0000000000000000
     0.0000000000000000    0.0000000000000000   35.8350000000000009
 Pd  O   H  
  36   1   2
Selective dynamics
Cartesian
  1.3753226894078350  1.3753226894078350 15.0000000000000000   F   F   F
  4.1259680682235054  1.3753226894078350 15.0000000000000000   F   F   F
  6.8766134470391780  1.3753226894078350 15.0000000000000000   F   F   F
  1.3753226894078350  4.1259680682235054 15.0000000000000000   F   F   F
  4.1259680682235054  4.1259680682235054 15.0000000000000000   F   F   F
  6.8766134470391780  4.1259680682235054 15.0000000000000000   F   F   F
  1.3753226894078350  6.8766134470391780 15.0000000000000000   F   F   F
  4.1259680682235054  6.8766134470391780 15.0000000000000000   F   F   F
  6.8766134470391780  6.8766134470391780 15.0000000000000000   F   F   F
  0.0000000000000000  0.0000000000000000 16.9450000000000003   F   F   F
  2.7506453788156700  0.0000000000000000 16.9450000000000003   F   F   F
  5.5012907576313399  0.0000000000000000 16.9450000000000003   F   F   F
  0.0000000000000000  2.7506453788156700 16.9450000000000003   F   F   F
  2.7506453788156700  2.7506453788156700 16.9450000000000003   F   F   F
  5.5012907576313399  2.7506453788156700 16.9450000000000003   F   F   F
  0.0000000000000000  5.5012907576313399 16.9450000000000003   F   F   F
  2.7506453788156700  5.5012907576313399 16.9450000000000003   F   F   F
  5.5012907576313399  5.5012907576313399 16.9450000000000003   F   F   F
  1.3801216088904409  1.3795655761605303 18.9459434654986865   T   T   T
  4.1221454826550845  1.3786561098439820 18.9447909499015950   T   T   T
  6.8751954985972672  1.3725451498405858 18.9417734797480861   T   T   T
  1.3813057888913984  4.1172696622692575 18.9494397219972335   T   T   T
  4.1119407596895821  4.1106550377350652 18.9556378475052014   T   T   T
  6.8717657341353462  4.1294978924731973 18.9386775755700292   T   T   T
  1.3705016576805222  6.8710326801499777 18.9384272043625046   T   T   T
  4.1303474484941640  6.8681214373231807 18.9366094163735355   T   T   T
  6.8765371754514586  6.8762419712943599 18.9440007920635693   T   T   T
  0.0046821388955498  0.0036613126375207 20.9304133517108895   T   T   T
  2.7551256324497437  8.2256984393774850 20.8989736714566519   T   T   T
  5.4994551472088231  0.0024278354922305 20.9319102993469350   T   T   T
  8.2361069906775537  2.7531531955685669 20.9153329697207830   T   T   T
  2.7722043854701988  2.7799879143433928 20.9914950182375897   T   T   T
  5.5208320005301292  2.7495964744311103 20.9316730384885510   T   T   T
  0.0029927180374967  5.4990479949435302 20.9335016651432504   T   T   T
  2.7491037115809824  5.5181129847052173 20.9355113172582286   T   T   T
  5.4967475368301102  5.4976377444911941 20.9316797841395825   T   T   T
  2.4716296543302434  2.2421938485123687 23.2089748377378662   T   T   T
  2.6635911480992682  1.2803143309630225 23.0922485783542335   T   T   T
  1.4900939911721667  2.2901090929972510 23.1892549968801092   T   T   T
