CH3COOH_Ir100
 1.0000000000000000
     8.1458701192690270    0.0000000000000000    0.0000000000000000
     0.0000000000000000    8.1458701192690270    0.0000000000000000
     0.0000000000000000    0.0000000000000000   35.7599999999999980
 Ir  C   O   H  
  36   2   2   4
Selective dynamics
Cartesian
  1.3576450198781711  1.3576450198781711 15.0000000000000018   F   F   F
  4.0729350596345135  1.3576450198781711 15.0000000000000018   F   F   F
  6.7882250993908553  1.3576450198781711 15.0000000000000018   F   F   F
  1.3576450198781711  4.0729350596345135 15.0000000000000018   F   F   F
  4.0729350596345135  4.0729350596345135 15.0000000000000018   F   F   F
  6.7882250993908553  4.0729350596345135 15.0000000000000018   F   F   F
  1.3576450198781711  6.7882250993908553 15.0000000000000018   F   F   F
  4.0729350596345135  6.7882250993908553 15.0000000000000018   F   F   F
  6.7882250993908553  6.7882250993908553 15.0000000000000018   F   F   F
  0.0000000000000000  0.0000000000000000 16.9200000000000017   F   F   F
  2.7152900397563422  0.0000000000000000 16.9200000000000017   F   F   F
  5.4305800795126844  0.0000000000000000 16.9200000000000017   F   F   F
  0.0000000000000000  2.7152900397563422 16.9200000000000017   F   F   F
  2.7152900397563422  2.7152900397563422 16.9200000000000017   F   F   F
  5.4305800795126844  2.7152900397563422 16.9200000000000017   F   F   F
  0.0000000000000000  5.4305800795126844 16.9200000000000017   F   F   F
  2.7152900397563422  5.4305800795126844 16.9200000000000017   F   F   F
  5.4305800795126844  5.4305800795126844 16.9200000000000017   F   F   F
  1.3543204548887733  1.3569005239572605 18.8734201395318237   T   T   T
  4.0754292903800797  1.3569938894399864 18.8736664987554974   T   T   T
  6.7880899797904242  1.3570823994178052 18.8762990934739001   T   T   T
  1.3690218257186964  4.0815004062758966 18.8966076387612425   T   T   T
  4.0620295849762735  4.0812048099788614 18.8963736308310821   T   T   T
  6.7886848293749988  4.0680764871317781 18.8807511589491845   T   T   T
  1.3746466788722649  6.7735733299551661 18.9039851574564821   T   T   T
  4.0559492967488708  6.7738587531390611 18.9034639177211901   T   T   T
  6.7880943895307810  6.7876742135301020 18.8712946275060318   T   T   T
  8.1411549932169098  8.1395889002131288 20.7335991984618104   T   T   T
  2.7154143499695191  0.0057064472710277 20.7401950419443679   T   T   T
  5.4342429133535326  8.1396550444589106 20.7331897230792244   T   T   T
  0.0107613428392746  2.7117581123417840 20.7388549677388276   T   T   T
  2.7149711746402763  2.6896857481332446 20.7200115006981562   T   T   T
  5.4197675579569360  2.7119395207178347 20.7388568866258431   T   T   T
  8.1278827179761919  5.4311391417683224 20.7329504934924138   T   T   T
  2.7157689550259478  5.4424359600123422 20.8317104160765147   T   T   T
  5.4495888369211709  5.4308710315905255 20.7319382068367162   T   T   T
  2.7859028447066754  5.5880735458383599 25.2411084773099574   T   T   T
  2.7562568702945143  6.0712391104427894 23.8247659182369738   T   T   T
  2.7334779725142715  5.2144861732641603 22.8857396176872285   T   T   T
  2.7558076641619023  7.3532343046991446 23.6702550843121422   T   T   T
  2.7319076735207899  4.5024397874120803 25.2939301344288907   T   T   T
  1.9579880702461800  6.0438153508848256 25.7938992619137011   T   T   T
  3.7069630425543361  5.9439941810602859 25.7152610761373026   T   T   T
  2.7401470548897318  7.6282471459234085 22.5961342988740270   T   T   T
