CO_Rh110
 1.0000000000000000
    11.4089999999999989    0.0000000000000000    0.0000000000000000
     0.0000000000000000    5.3782541777048811    0.0000000000000000
     0.0000000000000000    0.0000000000000000   34.0336906332786597
 Rh  O   C  
  24   1   1
Selective dynamics
Cartesian
  1.9014999999999997  1.3445635444262203 15.0000000000000000   F   F   F
  5.7044999999999995  1.3445635444262203 15.0000000000000000   F   F   F
  9.5074999999999985  1.3445635444262203 15.0000000000000000   F   F   F
  1.9014999999999997  4.0336906332786606 15.0000000000000000   F   F   F
  5.7044999999999995  4.0336906332786606 15.0000000000000000   F   F   F
  9.5074999999999985  4.0336906332786606 15.0000000000000000   F   F   F
  0.0000000000000000  0.0000000000000000 16.3445635444262187   F   F   F
  3.8029999999999995  0.0000000000000000 16.3445635444262187   F   F   F
  7.6059999999999990  0.0000000000000000 16.3445635444262187   F   F   F
  0.0000000000000000  2.6891270888524406 16.3445635444262187   F   F   F
  3.8029999999999995  2.6891270888524406 16.3445635444262187   F   F   F
  7.6059999999999990  2.6891270888524406 16.3445635444262187   F   F   F
  1.8887661117528751  1.3456921932357280 17.6931836128787303   T   T   T
  5.7239292494958063  1.3459401510485478 17.6967225168257549   T   T   T
  9.5100511382426181  1.3446065815711625 17.7370333818262687   T   T   T
  1.8910349716882555  4.0356451729024876 17.7263839140862238   T   T   T
  5.7050647498445226  4.0352311395664566 17.7544058788513972   T   T   T
  9.5127481835107712  4.0337357764804658 17.7302340364614253   T   T   T
  0.0081717225746521  5.3772529427886688 18.9936807543800263   T   T   T
  3.8040239515440422  0.0031983102686942 19.0133947740717772   T   T   T
  7.6079686228084737  5.3735718568977537 18.9900956785986637   T   T   T
  0.0083612404599035  2.6903577621190333 18.9934040680613379   T   T   T
  3.8025719508978999  2.6967913949168492 19.0099960271675528   T   T   T
  7.6079221311267116  2.6939763519831770 18.9896724795815217   T   T   T
  4.5166378531492848  1.3575236397737072 21.5692023886137321   T   T   T
  4.1966470170099441  1.3497890021282575 20.4230229284993889   T   T   T
