CH3_Rh110
 1.0000000000000000
    11.4089999999999989    0.0000000000000000    0.0000000000000000
     0.0000000000000000    5.3782541777048811    0.0000000000000000
     0.0000000000000000    0.0000000000000000   34.0336906332786597
 Rh  C   H  
  24   1   3
Selective dynamics
Cartesian
  1.9014999999999997  1.3445635444262203 15.0000000000000000   F   F   F
  5.7044999999999995  1.3445635444262203 15.0000000000000000   F   F   F
  9.5074999999999985  1.3445635444262203 15.0000000000000000   F   F   F
  1.9014999999999997  4.0336906332786606 15.0000000000000000   F   F   F
  5.7044999999999995  4.0336906332786606 15.0000000000000000   F   F   F
  9.5074999999999985  4.0336906332786606 15.0000000000000000   F   F   F
  0.0000000000000000  0.0000000000000000 16.3445635444262187   F   F   F
  3.8029999999999995  0.0000000000000000 16.3445635444262187   F   F   F
  7.6059999999999990  0.0000000000000000 16.3445635444262187   F   F   F
  0.0000000000000000  2.6891270888524406 16.3445635444262187   F   F   F
  3.8029999999999995  2.6891270888524406 16.3445635444262187   F   F   F
  7.6059999999999990  2.6891270888524406 16.3445635444262187   F   F   F
  1.9143397830771314  1.3514855714570067 17.7422673456356037   T   T   T
  5.6916638260239010  1.3512771541724167 17.7412397966633151   T   T   T
  9.5070570100369451  1.3432208551562956 17.7383959951491796   T   T   T
  1.9145863642712175  4.0256470086893179 17.7465955778202797   T   T   T
  5.6915306278137692  4.0253534177284260 17.7456078452374193   T   T   T
  9.5070502003263506  4.0363737179623183 17.7409643496127316   T   T   T
  0.0037949366419625  0.0002541534236842 18.9907744269355803   T   T   T
  3.8032406708135365  5.3735671115811803 18.9678759222497426   T   T   T
  7.6009663361076685  5.3778886338875269 18.9910920138738213   T   T   T
  0.0066840331080323  2.6880935005281454 18.9822850090238084   T   T   T
  3.8035607199049681  2.6853946032493399 19.0541493347351576   T   T   T
  7.5984546692049335  2.6877399263036814 18.9827299002060847   T   T   T
  3.7933311981548226  2.6993213462534635 21.1068239079888400   T   T   T
  2.8349657368328796  3.1357173906508162 21.4201678578406778   T   T   T
  4.6443001055061499  3.3142056471775558 21.4303481211922708   T   T   T
  3.8948559377058709  1.6663137779124395 21.4668769812414979   T   T   T
