N2_Rh110
 1.0000000000000000
    11.4089999999999989    0.0000000000000000    0.0000000000000000
     0.0000000000000000    5.3782541777048811    0.0000000000000000
     0.0000000000000000    0.0000000000000000   34.0336906332786597
 Rh  N  
  24   2
Selective dynamics
Cartesian
  1.9014999999999997  1.3445635444262203 15.0000000000000000   F   F   F
  5.7044999999999995  1.3445635444262203 15.0000000000000000   F   F   F
  9.5074999999999985  1.3445635444262203 15.0000000000000000   F   F   F
  1.9014999999999997  4.0336906332786606 15.0000000000000000   F   F   F
  5.7044999999999995  4.0336906332786606 15.0000000000000000   F   F   F
  9.5074999999999985  4.0336906332786606 15.0000000000000000   F   F   F
  0.0000000000000000  0.0000000000000000 16.3445635444262187   F   F   F
  3.8029999999999995  0.0000000000000000 16.3445635444262187   F   F   F
  7.6059999999999990  0.0000000000000000 16.3445635444262187   F   F   F
  0.0000000000000000  2.6891270888524406 16.3445635444262187   F   F   F
  3.8029999999999995  2.6891270888524406 16.3445635444262187   F   F   F
  7.6059999999999990  2.6891270888524406 16.3445635444262187   F   F   F
  1.8928504750984192  1.3415534307738146 17.7175235218891807   T   T   T
  5.7131344123750756  1.3415823559328577 17.7174432341795765   T   T   T
  9.5074753057849541  1.3447423478141878 17.7362977071867363   T   T   T
  1.8924746740912783  4.0438469693840533 17.7162975284774049   T   T   T
  5.7135159002288809  4.0438289158321084 17.7162178173979363   T   T   T
  9.5074765010438114  4.0358863255332640 17.7366974507972159   T   T   T
  0.0065774961667940  0.0023445623981157 18.9955718861897296   T   T   T
  3.8030426952681204  0.0096368469491082 18.9621416142106618   T   T   T
  7.5993346796005694  0.0023445605924009 18.9955726033187347   T   T   T
  0.0040554755939030  2.6910086424867297 18.9811953385454544   T   T   T
  3.8030925426891513  2.6986065419097724 19.0358291219344409   T   T   T
  7.6018674332699261  2.6910155795701378 18.9812160216352268   T   T   T
  3.8007186747869040  2.8553877672860835 22.0847229935160634   T   T   T
  3.8015139258083708  2.7864388615796520 20.9543951835520446   T   T   T
