H2O_Rh110
 1.0000000000000000
    11.4089999999999989    0.0000000000000000    0.0000000000000000
     0.0000000000000000    5.3782541777048811    0.0000000000000000
     0.0000000000000000    0.0000000000000000   34.0336906332786597
 Rh  O   H  
  24   1   2
Selective dynamics
Cartesian
  1.9014999999999997  1.3445635444262203 15.0000000000000000   F   F   F
  5.7044999999999995  1.3445635444262203 15.0000000000000000   F   F   F
  9.5074999999999985  1.3445635444262203 15.0000000000000000   F   F   F
  1.9014999999999997  4.0336906332786606 15.0000000000000000   F   F   F
  5.7044999999999995  4.0336906332786606 15.0000000000000000   F   F   F
  9.5074999999999985  4.0336906332786606 15.0000000000000000   F   F   F
  0.0000000000000000  0.0000000000000000 16.3445635444262187   F   F   F
  3.8029999999999995  0.0000000000000000 16.3445635444262187   F   F   F
  7.6059999999999990  0.0000000000000000 16.3445635444262187   F   F   F
  0.0000000000000000  2.6891270888524406 16.3445635444262187   F   F   F
  3.8029999999999995  2.6891270888524406 16.3445635444262187   F   F   F
  7.6059999999999990  2.6891270888524406 16.3445635444262187   F   F   F
  1.9010740413245799  1.3421544887208066 17.7289708769084271   T   T   T
  5.7050036197224303  1.3445938247680111 17.7243828069905618   T   T   T
  9.5062880700282300  1.3416955473987400 17.7395381823041944   T   T   T
  1.8936220481209578  4.0335981128335279 17.7304401670289629   T   T   T
  5.7031840470605690  4.0241845490594237 17.7319479626760703   T   T   T
  9.5040238210744192  4.0384763467281743 17.7382845897988410   T   T   T
  0.0029817754555735  0.0021721430216080 18.9970045424068665   T   T   T
  3.8177224690892917  5.3704346621072556 18.9580979778521765   T   T   T
  7.5962331776909062  5.3779278502608285 18.9903082096376359   T   T   T
 11.3969389607587974  2.6923322941404217 18.9760991642969330   T   T   T
  3.8325660351682620  2.6934213001556522 19.0129830463327281   T   T   T
  7.5957040571147729  2.6889762826835044 18.9862695953245648   T   T   T
  2.8536173930945803  2.5444034355286020 20.9931580631749313   T   T   T
  1.9093428100945657  2.7580425991454347 20.7783134971750094   T   T   T
  2.8585609328426558  1.5706701874061091 21.1323476527580318   T   T   T
