SO2_Au100
 1.0000000000000000
    11.5399826689644573    0.0000000000000000    0.0000000000000000
     0.0000000000000000   11.5399826689644573    0.0000000000000000
     0.0000000000000000    0.0000000000000000   36.1199999999999974
 Au  S   O  
  64   1   2
Selective dynamics
Cartesian
  1.4424978336205572  1.4424978336205572 14.9999999999999982   F   F   F
  4.3274935008616717  1.4424978336205572 14.9999999999999982   F   F   F
  7.2124891681027856  1.4424978336205572 14.9999999999999982   F   F   F
 10.0974848353439004  1.4424978336205572 14.9999999999999982   F   F   F
  1.4424978336205572  4.3274935008616717 14.9999999999999982   F   F   F
  4.3274935008616717  4.3274935008616717 14.9999999999999982   F   F   F
  7.2124891681027856  4.3274935008616717 14.9999999999999982   F   F   F
 10.0974848353439004  4.3274935008616717 14.9999999999999982   F   F   F
  1.4424978336205572  7.2124891681027856 14.9999999999999982   F   F   F
  4.3274935008616717  7.2124891681027856 14.9999999999999982   F   F   F
  7.2124891681027856  7.2124891681027856 14.9999999999999982   F   F   F
 10.0974848353439004  7.2124891681027856 14.9999999999999982   F   F   F
  1.4424978336205572 10.0974848353439004 14.9999999999999982   F   F   F
  4.3274935008616717 10.0974848353439004 14.9999999999999982   F   F   F
  7.2124891681027856 10.0974848353439004 14.9999999999999982   F   F   F
 10.0974848353439004 10.0974848353439004 14.9999999999999982   F   F   F
  0.0000000000000000  0.0000000000000000 17.0399999999999991   F   F   F
  2.8849956672411143  0.0000000000000000 17.0399999999999991   F   F   F
  5.7699913344822287  0.0000000000000000 17.0399999999999991   F   F   F
  8.6549870017233435  0.0000000000000000 17.0399999999999991   F   F   F
  0.0000000000000000  2.8849956672411143 17.0399999999999991   F   F   F
  2.8849956672411143  2.8849956672411143 17.0399999999999991   F   F   F
  5.7699913344822287  2.8849956672411143 17.0399999999999991   F   F   F
  8.6549870017233435  2.8849956672411143 17.0399999999999991   F   F   F
  0.0000000000000000  5.7699913344822287 17.0399999999999991   F   F   F
  2.8849956672411143  5.7699913344822287 17.0399999999999991   F   F   F
  5.7699913344822287  5.7699913344822287 17.0399999999999991   F   F   F
  8.6549870017233435  5.7699913344822287 17.0399999999999991   F   F   F
  0.0000000000000000  8.6549870017233435 17.0399999999999991   F   F   F
  2.8849956672411143  8.6549870017233435 17.0399999999999991   F   F   F
  5.7699913344822287  8.6549870017233435 17.0399999999999991   F   F   F
  8.6549870017233435  8.6549870017233435 17.0399999999999991   F   F   F
  1.4388894438498672  1.4399595182612439 19.1800315321476766   T   T   T
  4.3249326470626075  1.4440248070200654 19.1726747286736234   T   T   T
  7.2170981306247395  1.4445013920320855 19.1751700452651974   T   T   T
 10.0982985128861031  1.4416866282370167 19.1839342189622926   T   T   T
  1.4415900959638985  4.3226147116279758 19.1776788588963498   T   T   T
  4.3366249147666798  4.3375250963334713 19.1991431341108516   T   T   T
  7.2002756964804320  4.3398355902572199 19.1971265708653789   T   T   T
 10.0952266414536336  4.3231645985038627 19.1755148396013126   T   T   T
  1.4412725849761361  7.2154019922170809 19.1725917171964326   T   T   T
  4.3394733354543433  7.2007444737684985 19.2079394077100112   T   T   T
  7.2021975021025870  7.2033215034630711 19.1996496314218845   T   T   T
 10.0956114116995010  7.2148118148709512 19.1728983365076822   T   T   T
  1.4389318771651967 10.1009199940556194 19.1778240419142918   T   T   T
  4.3242269454998636 10.0983657357030054 19.1730363759584357   T   T   T
  7.2170957230077013 10.0981374441943395 19.1779595864208581   T   T   T
 10.0999473409943068 10.1009299791150440 19.1799665913223514   T   T   T
  0.0004410956722948 11.5392396304058416 21.3057119853108858   T   T   T
  2.8882281186425902 11.5366911412595687 21.3079939993868841   T   T   T
  5.7696537269585866  0.0124666905318167 21.3070590582082708   T   T   T
  8.6524531851836137 11.5378630542255269 21.3090594820522377   T   T   T
  0.0019040111865385  2.8874685271537639 21.3089836584108951   T   T   T
  2.8829141829769140  2.8708300773601509 21.2945486261363186   T   T   T
  5.7712065628454887  2.8645935868619246 21.2951449966635096   T   T   T
  8.6579520767146825  2.8821509818985356 21.3023220480676194   T   T   T
 11.5277766302203499  5.7701645560362262 21.3071558630903510   T   T   T
  2.8439756425992804  5.7702834817004813 21.2745466869708899   T   T   T
  5.7804469056165564  5.7586652477011961 21.4148737255964434   T   T   T
  8.6741319693712491  5.7689424350383742 21.2964773919189518   T   T   T
  0.0032027578421263  8.6512659624215758 21.3083732718786756   T   T   T
  2.8722142508065569  8.6670427501298359 21.2906913997170300   T   T   T
  5.7699794936743203  8.6962368786446778 21.2753801699642722   T   T   T
  8.6696018235852907  8.6567938392237522 21.2950996857722501   T   T   T
  5.3910549304679991  6.1341512955418853 23.9308074048860036   T   T   T
  4.0120581615348181  5.7051923910436333 24.1648405408617464   T   T   T
  5.6987260565747739  7.5487386560170577 24.1451840351728997   T   T   T
