CH3CH2OH_Ir100
 1.0000000000000000
     8.1458701192690270    0.0000000000000000    0.0000000000000000
     0.0000000000000000    8.1458701192690270    0.0000000000000000
     0.0000000000000000    0.0000000000000000   35.7599999999999980
 Ir  C   O   H  
  36   2   1   6
Selective dynamics
Cartesian
  1.3576450198781711  1.3576450198781711 15.0000000000000018   F   F   F
  4.0729350596345135  1.3576450198781711 15.0000000000000018   F   F   F
  6.7882250993908553  1.3576450198781711 15.0000000000000018   F   F   F
  1.3576450198781711  4.0729350596345135 15.0000000000000018   F   F   F
  4.0729350596345135  4.0729350596345135 15.0000000000000018   F   F   F
  6.7882250993908553  4.0729350596345135 15.0000000000000018   F   F   F
  1.3576450198781711  6.7882250993908553 15.0000000000000018   F   F   F
  4.0729350596345135  6.7882250993908553 15.0000000000000018   F   F   F
  6.7882250993908553  6.7882250993908553 15.0000000000000018   F   F   F
  0.0000000000000000  0.0000000000000000 16.9200000000000017   F   F   F
  2.7152900397563422  0.0000000000000000 16.9200000000000017   F   F   F
  5.4305800795126844  0.0000000000000000 16.9200000000000017   F   F   F
  0.0000000000000000  2.7152900397563422 16.9200000000000017   F   F   F
  2.7152900397563422  2.7152900397563422 16.9200000000000017   F   F   F
  5.4305800795126844  2.7152900397563422 16.9200000000000017   F   F   F
  0.0000000000000000  5.4305800795126844 16.9200000000000017   F   F   F
  2.7152900397563422  5.4305800795126844 16.9200000000000017   F   F   F
  5.4305800795126844  5.4305800795126844 16.9200000000000017   F   F   F
  1.3492152247232436  1.3600597777051282 18.8700020697195043   T   T   T
  4.0817476710106391  1.3624653211702771 18.8709339190048517   T   T   T
  6.7865046399689009  1.3583752115540273 18.8835292640310861   T   T   T
  1.3728663037366269  4.0889842266725882 18.9050219455305779   T   T   T
  4.0594959416873433  4.0914685572102591 18.9052313041934994   T   T   T
  6.7909968434042423  4.0694958650787258 18.8734634768640142   T   T   T
  1.3688123818548656  6.7762055076051633 18.9027619091815140   T   T   T
  4.0655367848373807  6.7803001231070832 18.8980465623813707   T   T   T
  6.7910316710791303  6.7949039597293215 18.8778545062080347   T   T   T
  0.0093945564364343  8.1450085263746459 20.7454991415251087   T   T   T
  2.7154852980159525  0.0260628276226093 20.7172061061650830   T   T   T
  5.4217225418092081  8.1405178930019115 20.7433682583125822   T   T   T
  0.0046712203860686  2.7155303218127376 20.7404562636522343   T   T   T
  2.7170488124797596  2.6915667906261480 20.7345472155237651   T   T   T
  5.4288046613026273  2.7205077381327585 20.7424516279185802   T   T   T
  8.1279577938931720  5.4278698296171992 20.7365629808704952   T   T   T
  2.7105910455844735  5.3982185105194676 20.8251880719438667   T   T   T
  5.4560715332618637  5.4305034380149158 20.7314986760263729   T   T   T
  2.5084443290604694  3.8430651172041457 24.2657224439126509   T   T   T
  1.9606954368677092  5.1960206651925542 23.9220941133907843   T   T   T
  2.8453298627597112  5.8402569305597529 22.9496516880529704   T   T   T
  2.6628507269718713  6.8156372330888093 22.9039468923634821   T   T   T
  0.9515452237270431  5.1461477876384976 23.4703834724732090   T   T   T
  1.9084206218554756  5.8711862194229587 24.7896373241962706   T   T   T
  3.4975930853637678  3.9280979165596697 24.7285588058729786   T   T   T
  1.8336102129259089  3.3241911010709360 24.9576365302594141   T   T   T
  2.6081290056148330  3.2275998367358030 23.3572645248526030   T   T   T
