CH3CHO_Au111
 1.0000000000000000
     8.6549870017233435    0.0000000000000000    0.0000000000000000
     4.3274935008616717    7.4954386129165247    0.0000000000000000
     0.0000000000000000    0.0000000000000000   37.0667672948810178
 Au  C   O   H  
  36   2   1   4
Selective dynamics
Cartesian
  0.0000000000000000  0.0000000000000000 15.0000000000000000   F   F   F
  2.8849956672411143  0.0000000000000000 15.0000000000000000   F   F   F
  5.7699913344822287  0.0000000000000000 15.0000000000000000   F   F   F
  1.4424978336205572  2.4984795376388416 15.0000000000000000   F   F   F
  4.3274935008616717  2.4984795376388416 15.0000000000000000   F   F   F
  7.2124891681027856  2.4984795376388416 15.0000000000000000   F   F   F
  2.8849956672411143  4.9969590752776831 15.0000000000000000   F   F   F
  5.7699913344822287  4.9969590752776831 15.0000000000000000   F   F   F
  8.6549870017233435  4.9969590752776831 15.0000000000000000   F   F   F
  1.4424978336205572  0.8328265125462805 17.3555890982936738   F   F   F
  4.3274935008616717  0.8328265125462805 17.3555890982936738   F   F   F
  7.2124891681027865  0.8328265125462805 17.3555890982936738   F   F   F
  2.8849956672411143  3.3313060501851219 17.3555890982936738   F   F   F
  5.7699913344822287  3.3313060501851219 17.3555890982936738   F   F   F
  8.6549870017233435  3.3313060501851219 17.3555890982936738   F   F   F
  4.3274935008616717  5.8297855878239639 17.3555890982936738   F   F   F
  7.2124891681027856  5.8297855878239639 17.3555890982936738   F   F   F
 10.0974848353439004  5.8297855878239639 17.3555890982936738   F   F   F
  8.6541807087842741  1.6660466302121635 19.8061704166580625   T   T   T
  2.8847442180319041  1.6652243668411246 19.8063459932663761   T   T   T
  5.7712754852712429  1.6657043970552698 19.8057130635969401   T   T   T
 10.0991780479908684  4.1657439902162459 19.8138259718079048   T   T   T
  4.3255787822339791  4.1660265468141846 19.8139953495778300   T   T   T
  7.2124864356134157  4.1630627259235542 19.8048070487386454   T   T   T
 11.5401726028209595  6.6611428539711932 19.8167922577209410   T   T   T
  5.7700913875767021  6.6625476928334653 19.8074396104747308   T   T   T
  8.6549722961309037  6.6624733481851264 19.8073191121196217   T   T   T
  0.0037338157923178  0.0042696404832963 22.3103491574755282   T   T   T
  7.2125270442753786  7.4950102349593495 22.3147041272447524   T   T   T
  5.7667762353858913  0.0042397088679456 22.3090527489725368   T   T   T
  1.4432406458165981  2.4971826665780807 22.3086943678040335   T   T   T
  4.3259369693732221  2.4982321009262263 22.3089632029677709   T   T   T
  7.2120655753975500  2.4978583997740889 22.3161691565571410   T   T   T
  2.8865844203873512  4.9889315983382767 22.3095537336963439   T   T   T
  5.7727035214502891  4.9966531212350764 22.3109048675368307   T   T   T
  8.6529980739341941  4.9968151388100734 22.3120807469401647   T   T   T
  3.1512687664788159  3.1403809126199231 26.2029650704464316   T   T   T
  2.9558847720932246  4.6262304571126318 26.2258655493427604   T   T   T
 11.5646225584481606  5.3508319405713802 25.2402308540309868   T   T   T
  2.3046889844245269  2.6356082807515984 26.6899099512159417   T   T   T
  3.2529874786601916  2.7878279654631188 25.1730761888979764   T   T   T
  4.0417665857313727  2.8619659994596631 26.7847270689406294   T   T   T
 11.5005884426939620  5.0766115061137773 27.2395021378673476   T   T   T
