CH3COOH_Ag100
 1.0000000000000000
     8.6762002051589384    0.0000000000000000    0.0000000000000000
     0.0000000000000000    8.6762002051589384    0.0000000000000000
     0.0000000000000000    0.0000000000000000   36.1349999999999980
 Ag  C   O   H  
  36   2   2   4
Selective dynamics
Cartesian
  1.4460333675264894  1.4460333675264894 15.0000000000000000   F   F   F
  4.3381001025794692  1.4460333675264894 15.0000000000000000   F   F   F
  7.2301668376324475  1.4460333675264894 15.0000000000000000   F   F   F
  1.4460333675264894  4.3381001025794692 15.0000000000000000   F   F   F
  4.3381001025794692  4.3381001025794692 15.0000000000000000   F   F   F
  7.2301668376324475  4.3381001025794692 15.0000000000000000   F   F   F
  1.4460333675264894  7.2301668376324475 15.0000000000000000   F   F   F
  4.3381001025794692  7.2301668376324475 15.0000000000000000   F   F   F
  7.2301668376324475  7.2301668376324475 15.0000000000000000   F   F   F
  0.0000000000000000  0.0000000000000000 17.0450000000000017   F   F   F
  2.8920667350529787  0.0000000000000000 17.0450000000000017   F   F   F
  5.7841334701059575  0.0000000000000000 17.0450000000000017   F   F   F
  0.0000000000000000  2.8920667350529787 17.0450000000000017   F   F   F
  2.8920667350529787  2.8920667350529787 17.0450000000000017   F   F   F
  5.7841334701059575  2.8920667350529787 17.0450000000000017   F   F   F
  0.0000000000000000  5.7841334701059575 17.0450000000000017   F   F   F
  2.8920667350529787  5.7841334701059575 17.0450000000000017   F   F   F
  5.7841334701059575  5.7841334701059575 17.0450000000000017   F   F   F
  1.4400740920521173  1.4443473298080240 19.1554291647479253   T   T   T
  4.3433061427568989  1.4456147129061010 19.1571830834090093   T   T   T
  7.2309598928674621  1.4466650080134813 19.1643039794759247   T   T   T
  1.4561642782261737  4.3485174655295600 19.1789052783760035   T   T   T
  4.3299063055485929  4.3484061861762608 19.1816581999042555   T   T   T
  7.2288521341152858  4.3329098348436430 19.1556455897767535   T   T   T
  1.4559611251112927  7.2217687067527248 19.1812217996121746   T   T   T
  4.3292609592540190  7.2210958969698886 19.1820119806543552   T   T   T
  7.2305086520595454  7.2348654978330664 19.1579572606642508   T   T   T
  0.0003817289535271  0.0012912114126937 21.2449377989749202   T   T   T
  2.8921481891864742  0.0147560102985392 21.2371120447046771   T   T   T
  5.7851280353998176  0.0008459115405532 21.2422361036475920   T   T   T
  0.0046982311076255  2.8971394313059027 21.2504169366966700   T   T   T
  2.8897873939475738  2.8750074592775867 21.2293577726655727   T   T   T
  5.7855005732271509  2.8921612548541629 21.2447851013027140   T   T   T
  8.6613114108311766  5.7811143635448694 21.2355907561378245   T   T   T
  2.8795626657651026  5.7742319688302484 21.3196952264365400   T   T   T
  5.8000924334755162  5.7838617311401999 21.2367710029193191   T   T   T
  2.8029719384999576  5.3851632164952550 26.1220798848487341   T   T   T
  2.5075076033181953  5.2691235728751158 24.6671648691848766   T   T   T
  3.0754525323203556  5.9144866862870797 23.7768588288504006   T   T   T
  1.5412984154515239  4.3634453766601373 24.4154582568174376   T   T   T
  1.8718785135792535  5.5684170377132078 26.6688984114024770   T   T   T
  3.5226021618075039  6.1819338806189732 26.2985973493790155   T   T   T
  3.2108725009907411  4.4311970029607366 26.4770422013555162   T   T   T
  1.4047500390851118  4.3407386927337530 23.4346396429994215   T   T   T
