H2CO_Au110
 1.0000000000000000
    16.3200000000000003    0.0000000000000000    0.0000000000000000
     0.0000000000000000   11.5399826689644573    0.0000000000000000
     0.0000000000000000    0.0000000000000000   34.3274935008616708
 Au  C   O   H  
  64   1   1   2
Selective dynamics
Cartesian
  2.0400000000000000  1.4424978336205572 14.9999999999999964   F   F   F
  6.1200000000000001  1.4424978336205572 14.9999999999999964   F   F   F
 10.1999999999999922  1.4424978336205572 14.9999999999999964   F   F   F
 14.2800000000000011  1.4424978336205572 14.9999999999999964   F   F   F
  2.0400000000000000  4.3274935008616717 14.9999999999999964   F   F   F
  6.1200000000000001  4.3274935008616717 14.9999999999999964   F   F   F
 10.1999999999999922  4.3274935008616717 14.9999999999999964   F   F   F
 14.2800000000000011  4.3274935008616717 14.9999999999999964   F   F   F
  2.0400000000000000  7.2124891681027856 14.9999999999999964   F   F   F
  6.1200000000000001  7.2124891681027856 14.9999999999999964   F   F   F
 10.1999999999999922  7.2124891681027856 14.9999999999999964   F   F   F
 14.2800000000000011  7.2124891681027856 14.9999999999999964   F   F   F
  2.0400000000000000 10.0974848353439004 14.9999999999999964   F   F   F
  6.1200000000000001 10.0974848353439004 14.9999999999999964   F   F   F
 10.1999999999999922 10.0974848353439004 14.9999999999999964   F   F   F
 14.2800000000000011 10.0974848353439004 14.9999999999999964   F   F   F
  0.0000000000000000  0.0000000000000000 16.4424978336205569   F   F   F
  4.0800000000000001  0.0000000000000000 16.4424978336205569   F   F   F
  8.1600000000000001  0.0000000000000000 16.4424978336205569   F   F   F
 12.2400000000000002  0.0000000000000000 16.4424978336205569   F   F   F
  0.0000000000000000  2.8849956672411143 16.4424978336205569   F   F   F
  4.0800000000000001  2.8849956672411143 16.4424978336205569   F   F   F
  8.1600000000000001  2.8849956672411143 16.4424978336205569   F   F   F
 12.2400000000000002  2.8849956672411143 16.4424978336205569   F   F   F
  0.0000000000000000  5.7699913344822287 16.4424978336205569   F   F   F
  4.0800000000000001  5.7699913344822287 16.4424978336205569   F   F   F
  8.1600000000000001  5.7699913344822287 16.4424978336205569   F   F   F
 12.2400000000000002  5.7699913344822287 16.4424978336205569   F   F   F
  0.0000000000000000  8.6549870017233435 16.4424978336205569   F   F   F
  4.0800000000000001  8.6549870017233435 16.4424978336205569   F   F   F
  8.1600000000000001  8.6549870017233435 16.4424978336205569   F   F   F
 12.2400000000000002  8.6549870017233435 16.4424978336205569   F   F   F
  2.0401372248933338  1.4426732435565084 18.0669695513442470   T   T   T
  6.1169435904488090  1.4413208695636723 18.0667082447308545   T   T   T
 10.2031173416102199  1.4413684247689293 18.0649224240037363   T   T   T
 14.2800695079348028  1.4425788519133382 18.0673288158718819   T   T   T
  2.0406112426028562  4.3270521002585758 18.0689825616329145   T   T   T
  6.1219461242788382  4.3283147899745158 18.0683601645275331   T   T   T
 10.1986990686191117  4.3251368165978610 18.0696107002904256   T   T   T
 14.2796938077639357  4.3279518331997240 18.0682260710420941   T   T   T
  2.0398541047981968  7.2134099157741050 18.0684664171104252   T   T   T
  6.1220690331173859  7.2121837079422431 18.0675138359786978   T   T   T
 10.1991303961597488  7.2150463830030800 18.0692933979459340   T   T   T
 14.2796835385843490  7.2120176477235525 18.0682378719716752   T   T   T
  2.0399024389349680 10.0975415612033412 18.0668549407234096   T   T   T
  6.1172619995057227 10.0988828872144190 18.0668591067343627   T   T   T
 10.2032502827078932 10.0988028909808811 18.0648612399661666   T   T   T
 14.2800699131584015 10.0974112947481611 18.0673195326632978   T   T   T
  0.0003659115268720  0.0000201595214578 19.4108035462471058   T   T   T
  4.0797623768422895 11.5398652050039559 19.4110652148372118   T   T   T
  8.1601545630598658  0.0002444630104690 19.4101496148534132   T   T   T
 12.2406028505076296  0.0000017668891971 19.4110141726656948   T   T   T
  0.0003147880579366  2.8850444294057342 19.4111137051266098   T   T   T
  4.0808636627506925  2.8854591047659675 19.4119481634954276   T   T   T
  8.1593965326574445  2.8701809166081653 19.4028100956395058   T   T   T
 12.2393110786789840  2.8861314003661529 19.4101441061423188   T   T   T
  0.0008159416235628  5.7700038109223533 19.4108123275193911   T   T   T
  4.0681968357289451  5.7702805777006851 19.4111436189268289   T   T   T
  8.1777007641345723  5.7706969957078220 19.3973604271761602   T   T   T
 12.2376078497151894  5.7700288147467402 19.4115211767090550   T   T   T
  0.0001609605727758  8.6550151085784943 19.4112479122970925   T   T   T
  4.0808118739869093  8.6551392552787920 19.4111151595814135   T   T   T
  8.1601028690775319  8.6703833384584090 19.4021209911513175   T   T   T
 12.2394065441981006  8.6539032435878447 19.4102203675968923   T   T   T
  6.0534721087246011  5.8126536067084347 22.3876560545275964   T   T   T
  7.2430788172004164  5.7975870487290067 22.1436518628655712   T   T   T
  5.6994126664056308  5.7850096025083682 23.4372995395694410   T   T   T
  5.2964371315459520  5.8522070410883531 21.5550573542007697   T   T   T
