SO2_Cu111
 1.0000000000000000
    10.2106219203337467    0.0000000000000000    0.0000000000000000
     0.0000000000000000    8.8426579714472719    0.0000000000000000
     0.0000000000000000    0.0000000000000000   36.2527034153236514
 Cu  S   O  
  64   1   2
Selective dynamics
Cartesian
  0.0000000000000000  0.0000000000000000 15.0000000000000000   F   F   F
  2.5526554800834367  0.0000000000000000 15.0000000000000000   F   F   F
  5.1053109601668734  0.0000000000000000 15.0000000000000000   F   F   F
  7.6579664402503100  0.0000000000000000 15.0000000000000000   F   F   F
  1.2763277400417183  2.2106644928618180 15.0000000000000000   F   F   F
  3.8289832201251550  2.2106644928618180 15.0000000000000000   F   F   F
  6.3816387002085921  2.2106644928618180 15.0000000000000000   F   F   F
  8.9342941802920279  2.2106644928618180 15.0000000000000000   F   F   F
  0.0000000000000000  4.4213289857236360 15.0000000000000000   F   F   F
  2.5526554800834367  4.4213289857236360 15.0000000000000000   F   F   F
  5.1053109601668734  4.4213289857236360 15.0000000000000000   F   F   F
  7.6579664402503100  4.4213289857236360 15.0000000000000000   F   F   F
  1.2763277400417183  6.6319934785854526 15.0000000000000000   F   F   F
  3.8289832201251550  6.6319934785854526 15.0000000000000000   F   F   F
  6.3816387002085921  6.6319934785854526 15.0000000000000000   F   F   F
  8.9342941802920279  6.6319934785854526 15.0000000000000000   F   F   F
  1.2763277400417183  0.7368881642872727 17.0842344717745505   F   F   F
  3.8289832201251550  0.7368881642872727 17.0842344717745505   F   F   F
  6.3816387002085921  0.7368881642872727 17.0842344717745505   F   F   F
  8.9342941802920279  0.7368881642872727 17.0842344717745505   F   F   F
  0.0000000000000000  2.9475526571490906 17.0842344717745505   F   F   F
  2.5526554800834367  2.9475526571490906 17.0842344717745505   F   F   F
  5.1053109601668734  2.9475526571490906 17.0842344717745505   F   F   F
  7.6579664402503100  2.9475526571490906 17.0842344717745505   F   F   F
  1.2763277400417183  5.1582171500109091 17.0842344717745505   F   F   F
  3.8289832201251550  5.1582171500109091 17.0842344717745505   F   F   F
  6.3816387002085921  5.1582171500109091 17.0842344717745505   F   F   F
  8.9342941802920279  5.1582171500109091 17.0842344717745505   F   F   F
  0.0000000000000000  7.3688816428727266 17.0842344717745505   F   F   F
  2.5526554800834367  7.3688816428727266 17.0842344717745505   F   F   F
  5.1053109601668734  7.3688816428727266 17.0842344717745505   F   F   F
  7.6579664402503100  7.3688816428727266 17.0842344717745505   F   F   F
 10.2043709084577934  1.4718294032198156 19.1513514766226081   T   T   T
  2.5532163028711539  1.4786074259363249 19.1525000611127147   T   T   T
  5.1069040469413851  1.4821622836703878 19.1476365756022489   T   T   T
  7.6546418193675523  1.4717189572905938 19.1608187335422464   T   T   T
  1.2823476636565245  3.6920101215213776 19.1790013546010698   T   T   T
  3.8085376896501448  3.7006487828369807 19.1902754926643340   T   T   T
  6.3779745080529633  3.6870732562952044 19.1515460239375379   T   T   T
  8.9312635513619334  3.6809076050774308 19.1527416027467865   T   T   T
  0.0097423925248418  5.9001062352819824 19.1758093178339344   T   T   T
  2.5533281019959735  5.8995280915477899 19.2421592909134880   T   T   T
  5.0884044185049424  5.9083347089703340 19.1905705515204374   T   T   T
  7.6583725884507494  5.8896277920751912 19.1529826918422117   T   T   T
  1.2753804918856442  8.0964516552679182 19.1765161782943423   T   T   T
  3.8307508088345958  8.1015146117820667 19.1780177562245981   T   T   T
  6.3842457119484211  8.1034313545152301 19.1588326211456419   T   T   T
  8.9333739695149887  8.1020545822982264 19.1636473837620329   T   T   T
 10.1876569647638853  0.0136292366674174 21.2577803142544610   T   T   T
  2.5475545697189981  0.0274277553799913 21.2223737236872516   T   T   T
  5.1465668210802145  0.0344403031299654 21.2269478434428294   T   T   T
  7.6624047903607009  0.0092221552863793 21.2577585662312813   T   T   T
  1.2572569928755319  2.1742237887380869 21.2269316060011093   T   T   T
  3.8461109984420720  2.1824669683970432 21.2354843234773298   T   T   T
  6.3871180760196307  2.2213392218021051 21.2519086120477319   T   T   T
  8.9279574961434633  2.2139325535592884 21.2467194786133007   T   T   T
 10.1721914548910366  4.4097368688684755 21.2237619141726235   T   T   T
  2.5535729404623213  4.3429692346513340 21.3079440113478711   T   T   T
  5.1332500740471660  4.4083334121140778 21.2354180303032471   T   T   T
  7.6535338509258892  4.4219803891758120 21.2500078011599491   T   T   T
  1.2085076374397279  6.6699807766510801 21.3239989263705532   T   T   T
  3.9067630731482468  6.6740292428984338 21.3033210634378918   T   T   T
  6.4184383723522469  6.6383008417273128 21.2425232627704510   T   T   T
  8.9137007538839512  6.6337773495721910 21.2582702889961155   T   T   T
  2.0576295006364749  6.1977553346937118 23.4579842157409253   T   T   T
  3.4345420157862709  6.8581139758552814 23.2654880621234348   T   T   T
  2.1853735414458315  4.6756890032240301 23.2746172906767654   T   T   T
