CO_Au110
 1.0000000000000000
    16.3200000000000003    0.0000000000000000    0.0000000000000000
     0.0000000000000000   11.5399826689644573    0.0000000000000000
     0.0000000000000000    0.0000000000000000   34.3274935008616708
 Au  O   C  
  64   1   1
Selective dynamics
Cartesian
  2.0400000000000000  1.4424978336205572 14.9999999999999964   F   F   F
  6.1200000000000001  1.4424978336205572 14.9999999999999964   F   F   F
 10.1999999999999922  1.4424978336205572 14.9999999999999964   F   F   F
 14.2800000000000011  1.4424978336205572 14.9999999999999964   F   F   F
  2.0400000000000000  4.3274935008616717 14.9999999999999964   F   F   F
  6.1200000000000001  4.3274935008616717 14.9999999999999964   F   F   F
 10.1999999999999922  4.3274935008616717 14.9999999999999964   F   F   F
 14.2800000000000011  4.3274935008616717 14.9999999999999964   F   F   F
  2.0400000000000000  7.2124891681027856 14.9999999999999964   F   F   F
  6.1200000000000001  7.2124891681027856 14.9999999999999964   F   F   F
 10.1999999999999922  7.2124891681027856 14.9999999999999964   F   F   F
 14.2800000000000011  7.2124891681027856 14.9999999999999964   F   F   F
  2.0400000000000000 10.0974848353439004 14.9999999999999964   F   F   F
  6.1200000000000001 10.0974848353439004 14.9999999999999964   F   F   F
 10.1999999999999922 10.0974848353439004 14.9999999999999964   F   F   F
 14.2800000000000011 10.0974848353439004 14.9999999999999964   F   F   F
  0.0000000000000000  0.0000000000000000 16.4424978336205569   F   F   F
  4.0800000000000001  0.0000000000000000 16.4424978336205569   F   F   F
  8.1600000000000001  0.0000000000000000 16.4424978336205569   F   F   F
 12.2400000000000002  0.0000000000000000 16.4424978336205569   F   F   F
  0.0000000000000000  2.8849956672411143 16.4424978336205569   F   F   F
  4.0800000000000001  2.8849956672411143 16.4424978336205569   F   F   F
  8.1600000000000001  2.8849956672411143 16.4424978336205569   F   F   F
 12.2400000000000002  2.8849956672411143 16.4424978336205569   F   F   F
  0.0000000000000000  5.7699913344822287 16.4424978336205569   F   F   F
  4.0800000000000001  5.7699913344822287 16.4424978336205569   F   F   F
  8.1600000000000001  5.7699913344822287 16.4424978336205569   F   F   F
 12.2400000000000002  5.7699913344822287 16.4424978336205569   F   F   F
  0.0000000000000000  8.6549870017233435 16.4424978336205569   F   F   F
  4.0800000000000001  8.6549870017233435 16.4424978336205569   F   F   F
  8.1600000000000001  8.6549870017233435 16.4424978336205569   F   F   F
 12.2400000000000002  8.6549870017233435 16.4424978336205569   F   F   F
  2.0492768419655532  1.4490929459373161 18.0734766221908281   T   T   T
  6.1497634294147758  1.4545682301331819 18.0645269504192356   T   T   T
 10.1735139837414916  1.4559476408911531 18.0608225393895623   T   T   T
 14.2729874192861601  1.4477015559542421 18.0728311220664004   T   T   T
  2.0537422129966476  4.3299677494213267 18.0792880434231016   T   T   T
  6.1474328269160354  4.3304694837825748 18.0205671116519710   T   T   T
 10.1726151725770162  4.3307191006029129 18.0156217844182507   T   T   T
 14.2706915153473677  4.3294558458083277 18.0752147920376807   T   T   T
  2.0499978936795156  7.2105736170099259 18.0743988651216867   T   T   T
  6.1541600706622681  7.2055466700129189 18.0656243258205791   T   T   T
 10.1693796181684863  7.2039623908894530 18.0629405709558135   T   T   T
 14.2727123386146211  7.2111910188134631 18.0729160089404992   T   T   T
  2.0455817666936698 10.0994419607856489 18.0702582666780138   T   T   T
  6.1202299876346880 10.1008054617768011 18.0573032358427135   T   T   T
 10.2009390140344252 10.1000053302026114 18.0570169367154172   T   T   T
 14.2755314562306967 10.0993597307253147 18.0717673098806735   T   T   T
  0.0014520206815511  0.0038911441515350 19.3976270004229505   T   T   T
  4.0953508625958666  0.0096450633673406 19.4015954945980518   T   T   T
  8.1631287625971591 11.5132765303643865 19.4301038125970393   T   T   T
 12.2244187843132153  0.0096657515153536 19.4005969085613685   T   T   T
  0.0011108703860334  2.8886442335476428 19.4031896567100368   T   T   T
  4.1180762251497516  2.8946121766061350 19.3975826757545846   T   T   T
  8.1519983599792081  2.8036692463678135 19.5343974722391600   T   T   T
 12.2068957599163213  2.8953878628183203 19.3945948801059274   T   T   T
  0.0010723056125926  5.7689628252683516 19.4030814657438917   T   T   T
  4.1180611418264492  5.7690778540952996 19.3983274553776113   T   T   T
  8.1507353593705236  5.8636872476040987 19.5389897076577270   T   T   T
 12.2074084609409059  5.7674616475768303 19.3951937056108932   T   T   T
  0.0013219985438778  8.6536402529473442 19.3975277984586327   T   T   T
  4.0982278142874442  8.6545188159161750 19.4000036374568872   T   T   T
  8.1623541020058923  8.6903183258541397 19.4338160870634908   T   T   T
 12.2233229520712356  8.6531141723032139 19.3997071422205920   T   T   T
  8.5253273005678221  4.3288345768645300 22.1461493659716524   T   T   T
  8.3324105521982741  4.3299122594647397 20.9867864385179743   T   T   T
