SO2_Ag110
 1.0000000000000000
    12.2699999999999996    0.0000000000000000    0.0000000000000000
     0.0000000000000000    5.7841334701059592    0.0000000000000000
     0.0000000000000000    0.0000000000000000   34.3381001025794674
 Ag  S   O  
  24   1   2
Selective dynamics
Cartesian
  2.0449999999999999  1.4460333675264898 15.0000000000000053   F   F   F
  6.1349999999999998  1.4460333675264898 15.0000000000000053   F   F   F
 10.2249999999999979  1.4460333675264898 15.0000000000000053   F   F   F
  2.0449999999999999  4.3381001025794692 15.0000000000000053   F   F   F
  6.1349999999999998  4.3381001025794692 15.0000000000000053   F   F   F
 10.2249999999999979  4.3381001025794692 15.0000000000000053   F   F   F
  0.0000000000000000  0.0000000000000000 16.4460333675264891   F   F   F
  4.0899999999999999  0.0000000000000000 16.4460333675264891   F   F   F
  8.1799999999999997  0.0000000000000000 16.4460333675264891   F   F   F
  0.0000000000000000  2.8920667350529796 16.4460333675264891   F   F   F
  4.0899999999999999  2.8920667350529796 16.4460333675264891   F   F   F
  8.1799999999999997  2.8920667350529796 16.4460333675264891   F   F   F
  2.0712501465244073  1.4475395507950337 18.0070023349058914   T   T   T
  6.1459572521505370  1.4496386973660531 17.9049795646833765   T   T   T
 10.2046926991073139  1.4437677754477074 17.9753700508717635   T   T   T
  2.0773811763326067  4.3564947762843476 18.0169163939742916   T   T   T
  6.1412138611088283  4.3347349448899966 17.9285577238921867   T   T   T
 10.2016498674620344  4.3337654460016353 17.9834330731127032   T   T   T
 12.2591484591676227  0.0050429690450342 19.3362079033618848   T   T   T
  4.1422228217018473  0.0078610989278839 19.3911066128667429   T   T   T
  8.1609532443857660  5.7549651733735994 19.3749534081296773   T   T   T
 12.2685744586512016  2.8982150498470993 19.3290987693869099   T   T   T
  4.1288637512573301  2.9013437965360440 19.3491820438354232   T   T   T
  8.1711756378749545  2.8981650037122719 19.3945205360467590   T   T   T
  6.9372736503879899  0.6916245013144078 21.5783823949659315   T   T   T
  5.4568324968864044  0.5544648909783046 21.3618822864171101   T   T   T
  7.4256516544124693  2.1166723895451791 21.5277805643008193   T   T   T
