H2O_Au111
 1.0000000000000000
     8.6549870017233435    0.0000000000000000    0.0000000000000000
     4.3274935008616717    7.4954386129165247    0.0000000000000000
     0.0000000000000000    0.0000000000000000   37.0667672948810178
 Au  O   H  
  36   1   2
Selective dynamics
Cartesian
  0.0000000000000000  0.0000000000000000 15.0000000000000000   F   F   F
  2.8849956672411143  0.0000000000000000 15.0000000000000000   F   F   F
  5.7699913344822287  0.0000000000000000 15.0000000000000000   F   F   F
  1.4424978336205572  2.4984795376388416 15.0000000000000000   F   F   F
  4.3274935008616717  2.4984795376388416 15.0000000000000000   F   F   F
  7.2124891681027856  2.4984795376388416 15.0000000000000000   F   F   F
  2.8849956672411143  4.9969590752776831 15.0000000000000000   F   F   F
  5.7699913344822287  4.9969590752776831 15.0000000000000000   F   F   F
  8.6549870017233435  4.9969590752776831 15.0000000000000000   F   F   F
  1.4424978336205572  0.8328265125462805 17.3555890982936738   F   F   F
  4.3274935008616717  0.8328265125462805 17.3555890982936738   F   F   F
  7.2124891681027865  0.8328265125462805 17.3555890982936738   F   F   F
  2.8849956672411143  3.3313060501851219 17.3555890982936738   F   F   F
  5.7699913344822287  3.3313060501851219 17.3555890982936738   F   F   F
  8.6549870017233435  3.3313060501851219 17.3555890982936738   F   F   F
  4.3274935008616717  5.8297855878239639 17.3555890982936738   F   F   F
  7.2124891681027856  5.8297855878239639 17.3555890982936738   F   F   F
 10.0974848353439004  5.8297855878239639 17.3555890982936738   F   F   F
  8.6547361726915621  1.6656419348947840 19.8085865901211982   T   T   T
  2.8852027267135218  1.6660391200982745 19.8088656717327645   T   T   T
  5.7701638754925231  1.6658807108177058 19.8070405178127373   T   T   T
 10.0972980874759948  4.1635343784563190 19.8091868631092112   T   T   T
  4.3278820944363137  4.1639487450213393 19.8078015931243279   T   T   T
  7.2125337546003649  4.1640264956104200 19.8064558820303169   T   T   T
 11.5408483176101058  6.6632542735427824 19.8103816526748062   T   T   T
  5.7696159796892621  6.6624033461683236 19.8087815856136942   T   T   T
  8.6551327148865962  6.6624874801738247 19.8074577860109997   T   T   T
 12.9781331147045655  7.4927230415283486 22.3056969384199171   T   T   T
  7.2165481857513321  7.4934343101621197 22.3071775587932777   T   T   T
  5.7700707678587309  0.0022380842064777 22.3150640083785952   T   T   T
 10.0981648162710886  2.5027044287862852 22.3064628507305045   T   T   T
  4.3279643380878943  2.4990392090265487 22.3131983295856422   T   T   T
  7.2119736941437296  2.4987964472409487 22.3145043621755761   T   T   T
  2.8864659742913088  4.9960317545493211 22.3147183104208224   T   T   T
  5.7698816485263649  4.9965059336882858 22.3136142372944981   T   T   T
  8.6533088481379785  4.9956189291958379 22.3154613769628938   T   T   T
  1.3588832240794479  0.8181252827274520 25.6457370927632908   T   T   T
  0.8128578729497509  1.3780792102794279 25.0644417855887518   T   T   T
  1.9015905577930452  0.3184638408856272 25.0075767558323356   T   T   T
