CH3OH_Cu110
 1.0000000000000000
    10.8300000000000001    0.0000000000000000    0.0000000000000000
     0.0000000000000000    5.1053109601668734    0.0000000000000000
     0.0000000000000000    0.0000000000000000   33.8289832201251528
 Cu  C   O   H  
  24   1   1   4
Selective dynamics
Cartesian
  1.8049999999999999  1.2763277400417183 14.9999999999999982   F   F   F
  5.4149999999999991  1.2763277400417183 14.9999999999999982   F   F   F
  9.0249999999999986  1.2763277400417183 14.9999999999999982   F   F   F
  1.8049999999999999  3.8289832201251550 14.9999999999999982   F   F   F
  5.4149999999999991  3.8289832201251550 14.9999999999999982   F   F   F
  9.0249999999999986  3.8289832201251550 14.9999999999999982   F   F   F
  0.0000000000000000  0.0000000000000000 16.2763277400417152   F   F   F
  3.6099999999999999  0.0000000000000000 16.2763277400417152   F   F   F
  7.2199999999999998  0.0000000000000000 16.2763277400417152   F   F   F
  0.0000000000000000  2.5526554800834367 16.2763277400417152   F   F   F
  3.6099999999999999  2.5526554800834367 16.2763277400417152   F   F   F
  7.2199999999999998  2.5526554800834367 16.2763277400417152   F   F   F
  1.8029929656352539  1.2801524126598642 17.6006385887958636   T   T   T
  5.4155835328086939  1.2810248924629222 17.5997906452233366   T   T   T
  9.0244666667292091  1.2737537635643108 17.6124914695776624   T   T   T
  1.8069229906592137  3.8189925471691377 17.6102246980673556   T   T   T
  5.4136272792583346  3.8207502717795649 17.6107862561879962   T   T   T
  9.0237810506210252  3.8318147753217260 17.6127044206452972   T   T   T
  0.0062029199954393  5.1051963068581969 18.7738523038701111   T   T   T
  3.6081466659666335  5.0960952292036046 18.7266493337172868   T   T   T
  7.2126114968599406  0.0007406298385219 18.7803675065942990   T   T   T
 10.8269453997084497  2.5524597220311840 18.7705372479133246   T   T   T
  3.5853064847444367  2.5480290966490973 18.8437746349062323   T   T   T
  7.2249088106003851  2.5524299401677091 18.7760269687654180   T   T   T
  3.4109701673676236  2.8704871668293483 22.0411739358051690   T   T   T
  4.0232761281137339  2.2038947700591414 20.9023709654848773   T   T   T
  2.3314055502759712  2.7286188980936319 21.9622231483717769   T   T   T
  4.9924313988404450  2.3476220628904607 20.9057649146308577   T   T   T
  3.7592462909787132  2.4184099200714204 22.9786223198403086   T   T   T
  3.6350138772161951  3.9442750485734912 22.0465077820460706   T   T   T
