HCOOH_Au110
 1.0000000000000000
    16.3200000000000003    0.0000000000000000    0.0000000000000000
     0.0000000000000000   11.5399826689644573    0.0000000000000000
     0.0000000000000000    0.0000000000000000   34.3274935008616708
 Au  O   C   H  
  64   2   1   2
Selective dynamics
Cartesian
  2.0400000000000000  1.4424978336205572 14.9999999999999964   F   F   F
  6.1200000000000001  1.4424978336205572 14.9999999999999964   F   F   F
 10.1999999999999922  1.4424978336205572 14.9999999999999964   F   F   F
 14.2800000000000011  1.4424978336205572 14.9999999999999964   F   F   F
  2.0400000000000000  4.3274935008616717 14.9999999999999964   F   F   F
  6.1200000000000001  4.3274935008616717 14.9999999999999964   F   F   F
 10.1999999999999922  4.3274935008616717 14.9999999999999964   F   F   F
 14.2800000000000011  4.3274935008616717 14.9999999999999964   F   F   F
  2.0400000000000000  7.2124891681027856 14.9999999999999964   F   F   F
  6.1200000000000001  7.2124891681027856 14.9999999999999964   F   F   F
 10.1999999999999922  7.2124891681027856 14.9999999999999964   F   F   F
 14.2800000000000011  7.2124891681027856 14.9999999999999964   F   F   F
  2.0400000000000000 10.0974848353439004 14.9999999999999964   F   F   F
  6.1200000000000001 10.0974848353439004 14.9999999999999964   F   F   F
 10.1999999999999922 10.0974848353439004 14.9999999999999964   F   F   F
 14.2800000000000011 10.0974848353439004 14.9999999999999964   F   F   F
  0.0000000000000000  0.0000000000000000 16.4424978336205569   F   F   F
  4.0800000000000001  0.0000000000000000 16.4424978336205569   F   F   F
  8.1600000000000001  0.0000000000000000 16.4424978336205569   F   F   F
 12.2400000000000002  0.0000000000000000 16.4424978336205569   F   F   F
  0.0000000000000000  2.8849956672411143 16.4424978336205569   F   F   F
  4.0800000000000001  2.8849956672411143 16.4424978336205569   F   F   F
  8.1600000000000001  2.8849956672411143 16.4424978336205569   F   F   F
 12.2400000000000002  2.8849956672411143 16.4424978336205569   F   F   F
  0.0000000000000000  5.7699913344822287 16.4424978336205569   F   F   F
  4.0800000000000001  5.7699913344822287 16.4424978336205569   F   F   F
  8.1600000000000001  5.7699913344822287 16.4424978336205569   F   F   F
 12.2400000000000002  5.7699913344822287 16.4424978336205569   F   F   F
  0.0000000000000000  8.6549870017233435 16.4424978336205569   F   F   F
  4.0800000000000001  8.6549870017233435 16.4424978336205569   F   F   F
  8.1600000000000001  8.6549870017233435 16.4424978336205569   F   F   F
 12.2400000000000002  8.6549870017233435 16.4424978336205569   F   F   F
  2.0439098642097937  1.4525769623865146 18.0701601599069654   T   T   T
  6.1309210066204276  1.4500973080920259 18.0612371160830740   T   T   T
 10.2080713565516525  1.4369731873861453 18.0673117648557024   T   T   T
 14.2802125284571719  1.4437086985831007 18.0653072314520386   T   T   T
  2.0468247655958947  4.3321119796897820 18.0688268352580153   T   T   T
  6.1222685700066144  4.3382839565364666 18.0789233423375215   T   T   T
 10.2185221769746075  4.3246309367810323 18.0532721877164910   T   T   T
 14.2797649509547515  4.3295150182957771 18.0707909882038535   T   T   T
  2.0478338522230883  7.2211884376528932 18.0660739687357150   T   T   T
  6.1126641543500613  7.2111666405825057 18.0830213144314378   T   T   T
 10.2112621914484745  7.2159526955618674 18.0595381600292519   T   T   T
 14.2840877379195454  7.2140311659755429 18.0702601369282583   T   T   T
  2.0397353601955381 10.1110930517235698 18.0644729278009493   T   T   T
  6.1265157760833979 10.0979282177476826 18.0638838210665966   T   T   T
 10.2010573920781304 10.0956052697832277 18.0756756217879904   T   T   T
 14.2849014099337790 10.0989585081644382 18.0658182495610156   T   T   T
  0.0034122640207592  0.0099507982171707 19.4072076890171772   T   T   T
  4.0933194350137185  0.0168355732705582 19.4035309324189207   T   T   T
  8.1597044771627765  0.0030300816287715 19.4093834598181942   T   T   T
 12.2456755232443264 11.5366732367898450 19.4109378456700412   T   T   T
  0.0030167442101979  2.8902100120294358 19.4048362900043649   T   T   T
  4.0873461116391150  2.8809151127130872 19.4139367713952531   T   T   T
  8.1829066797587124  2.8889141772709528 19.3948304437624586   T   T   T
 12.2438410189123630  2.8822443867996910 19.4105101593844545   T   T   T
  0.0091942554438907  5.7731527240421538 19.3997896847759925   T   T   T
  4.0585749139487390  5.7724513862856028 19.4183894697410118   T   T   T
  8.1899908074810828  5.7673645332239030 19.3902367070591772   T   T   T
 12.2422001176457531  5.7727675637919864 19.4099479680195586   T   T   T
  0.0093409133014353  8.6611001231295308 19.4017539762661144   T   T   T
  4.0756738993537986  8.6848303746448696 19.3990406027959601   T   T   T
  8.1601272390396318  8.6469015947919896 19.4039953261342362   T   T   T
 12.2468931198012285  8.6557202831427986 19.4114000978862933   T   T   T
  5.8574885182977843  4.0375725799098845 22.1795343870768384   T   T   T
  4.9053563573408070  6.1121700918125450 22.0982988286944071   T   T   T
  5.6212044825186300  5.2735113499166637 22.6222233361428735   T   T   T
  5.3514145372642492  3.9287659893164246 21.3268112684060860   T   T   T
  6.1745487203841725  5.4499198540702523 23.5544852963542475   T   T   T
