C2H6_Au111
 1.0000000000000000
     8.6549870017233435    0.0000000000000000    0.0000000000000000
     4.3274935008616717    7.4954386129165247    0.0000000000000000
     0.0000000000000000    0.0000000000000000   37.0667672948810178
 Au  C   H  
  36   2   6
Selective dynamics
Cartesian
  0.0000000000000000  0.0000000000000000 15.0000000000000000   F   F   F
  2.8849956672411143  0.0000000000000000 15.0000000000000000   F   F   F
  5.7699913344822287  0.0000000000000000 15.0000000000000000   F   F   F
  1.4424978336205572  2.4984795376388416 15.0000000000000000   F   F   F
  4.3274935008616717  2.4984795376388416 15.0000000000000000   F   F   F
  7.2124891681027856  2.4984795376388416 15.0000000000000000   F   F   F
  2.8849956672411143  4.9969590752776831 15.0000000000000000   F   F   F
  5.7699913344822287  4.9969590752776831 15.0000000000000000   F   F   F
  8.6549870017233435  4.9969590752776831 15.0000000000000000   F   F   F
  1.4424978336205572  0.8328265125462805 17.3555890982936738   F   F   F
  4.3274935008616717  0.8328265125462805 17.3555890982936738   F   F   F
  7.2124891681027865  0.8328265125462805 17.3555890982936738   F   F   F
  2.8849956672411143  3.3313060501851219 17.3555890982936738   F   F   F
  5.7699913344822287  3.3313060501851219 17.3555890982936738   F   F   F
  8.6549870017233435  3.3313060501851219 17.3555890982936738   F   F   F
  4.3274935008616717  5.8297855878239639 17.3555890982936738   F   F   F
  7.2124891681027856  5.8297855878239639 17.3555890982936738   F   F   F
 10.0974848353439004  5.8297855878239639 17.3555890982936738   F   F   F
  8.6546245492471030  1.6653297642300000 19.8093805897001296   T   T   T
  2.8853279104128093  1.6653327999612142 19.8093872628791594   T   T   T
  5.7700646235529822  1.6656187884241853 19.8086858712042755   T   T   T
 10.0976816334888451  4.1644678671428572 19.8103780615126084   T   T   T
  4.3283942071238792  4.1640489812141830 19.8070804399050502   T   T   T
  7.2121550162494348  4.1644979467446541 19.8077319421269635   T   T   T
 11.5395077567119966  6.6630326062620968 19.8076117427704581   T   T   T
  5.7699198679846395  6.6622105490540333 19.8078890038918374   T   T   T
  8.6549523854106472  6.6628077638981917 19.8081278198959794   T   T   T
  0.0016404562810619  0.0018542429362631 22.3135569297935916   T   T   T
  2.8845460155102494  0.0005794621493851 22.3113807646458291   T   T   T
 10.0977060505636356  7.4943869308964999 22.3140997742418428   T   T   T
  1.4425489355383607  2.4979345524131658 22.2984255872053119   T   T   T
  4.3251518797374580  2.4983482492992479 22.3116952690124783   T   T   T
  7.2149712836206943  2.4988829466059883 22.3123605178345272   T   T   T
 11.5384661368316515  4.9949563488482704 22.3128985995504117   T   T   T
  5.7689046164358890  4.9982162827298602 22.3170199425999662   T   T   T
  8.6552963943797927  4.9963796779214134 22.3113032162903018   T   T   T
  1.3910311045697688  1.8154303944977577 26.1259860858981483   T   T   T
 10.2860143617287623  3.3247303254970539 26.0847558347007507   T   T   T
  0.9374352371611199  1.5092161195434053 27.0801866729862937   T   T   T
  9.3727149923946058  1.4902923878285264 25.3178356083025484   T   T   T
  2.3296214264379227  1.2533712275879014 26.0089690069215251   T   T   T
  2.2805219635361533  3.6519662403605184 26.9095541104686866   T   T   T
  9.3444124320306869  3.8879442466182290 26.1623411570118591   T   T   T
  2.1135859892392759  3.6357715766082688 25.1454526768566602   T   T   T
