CH4_Rh111
 1.0000000000000000
    10.7565083554097622    0.0000000000000000    0.0000000000000000
     0.0000000000000000    9.3154094918044255    0.0000000000000000
     0.0000000000000000    0.0000000000000000   36.5869892211844387
 Rh  C   H  
  64   1   4
Selective dynamics
Cartesian
  0.0000000000000000  0.0000000000000000 15.0000000000000000   F   F   F
  2.6891270888524406  0.0000000000000000 15.0000000000000000   F   F   F
  5.3782541777048811  0.0000000000000000 15.0000000000000000   F   F   F
  8.0673812665573212  0.0000000000000000 15.0000000000000000   F   F   F
  1.3445635444262203  2.3288523729511064 15.0000000000000000   F   F   F
  4.0336906332786606  2.3288523729511064 15.0000000000000000   F   F   F
  6.7228177221311016  2.3288523729511064 15.0000000000000000   F   F   F
  9.4119448109835417  2.3288523729511064 15.0000000000000000   F   F   F
  0.0000000000000000  4.6577047459022127 15.0000000000000000   F   F   F
  2.6891270888524406  4.6577047459022127 15.0000000000000000   F   F   F
  5.3782541777048811  4.6577047459022127 15.0000000000000000   F   F   F
  8.0673812665573212  4.6577047459022127 15.0000000000000000   F   F   F
  1.3445635444262203  6.9865571188533195 15.0000000000000000   F   F   F
  4.0336906332786606  6.9865571188533195 15.0000000000000000   F   F   F
  6.7228177221311016  6.9865571188533195 15.0000000000000000   F   F   F
  9.4119448109835417  6.9865571188533195 15.0000000000000000   F   F   F
  1.3445635444262203  0.7762841243170354 17.1956630737281486   F   F   F
  4.0336906332786606  0.7762841243170354 17.1956630737281486   F   F   F
  6.7228177221311016  0.7762841243170354 17.1956630737281486   F   F   F
  9.4119448109835417  0.7762841243170354 17.1956630737281486   F   F   F
  0.0000000000000000  3.1051364972681417 17.1956630737281486   F   F   F
  2.6891270888524406  3.1051364972681417 17.1956630737281486   F   F   F
  5.3782541777048811  3.1051364972681417 17.1956630737281486   F   F   F
  8.0673812665573212  3.1051364972681417 17.1956630737281486   F   F   F
  1.3445635444262203  5.4339888702192489 17.1956630737281486   F   F   F
  4.0336906332786606  5.4339888702192489 17.1956630737281486   F   F   F
  6.7228177221311016  5.4339888702192489 17.1956630737281486   F   F   F
  9.4119448109835417  5.4339888702192489 17.1956630737281486   F   F   F
  0.0000000000000000  7.7628412431703548 17.1956630737281486   F   F   F
  2.6891270888524406  7.7628412431703548 17.1956630737281486   F   F   F
  5.3782541777048811  7.7628412431703548 17.1956630737281486   F   F   F
  8.0673812665573212  7.7628412431703548 17.1956630737281486   F   F   F
  0.0001249701878926  1.5525964243285546 19.4004834098104304   T   T   T
  2.6895120988315733  1.5524907926104934 19.4008520116364878   T   T   T
  5.3779961214437559  1.5524216587513626 19.4009504989723602   T   T   T
  8.0671754251170960  1.5526234613361773 19.4004979696812150   T   T   T
  1.3450878105725066  3.8817209277116311 19.4019623809929485   T   T   T
  4.0341324283382489  3.8822924510529098 19.4040446097693184   T   T   T
  6.7218150946171678  3.8821085270241462 19.4032251641583322   T   T   T
  9.4118785692826510  3.8815077359533019 19.4006510773917995   T   T   T
  0.0003615683483427  6.2104012531064505 19.4008878283746071   T   T   T
  2.6903360734598589  6.2106388006433502 19.4044607618372567   T   T   T
  5.3772042099384532  6.2102095567002449 19.4049103076852525   T   T   T
  8.0669266143579499  6.2103194832921913 19.4012988543637199   T   T   T
  1.3444480879440779  8.5388418985239234 19.4010685123575577   T   T   T
  4.0337059657620777  8.5375146980632408 19.4039619781859862   T   T   T
  6.7227047965140327  8.5387625186756697 19.4014860354351910   T   T   T
  9.4120878140687019  8.5393406417809672 19.4002915458192753   T   T   T
 10.7563091295507398  0.0002726920796873 21.5858976763178489   T   T   T
  2.6890030601884147  9.3141323619426455 21.5857566931003291   T   T   T
  5.3784138380738966  9.3147137407025813 21.5852086920759731   T   T   T
  8.0676356455042129  9.3151272812223525 21.5859787464162629   T   T   T
  1.3443108566797153  2.3298301313280003 21.5860780904404486   T   T   T
  4.0337116180962136  2.3301821239104128 21.5853543491110713   T   T   T
  6.7228646959700891  2.3299491306749958 21.5859509709330517   T   T   T
  9.4120074674867666  2.3286514040537969 21.5860530858713062   T   T   T
  0.0010315896063500  4.6574923068783880 21.5860497240255462   T   T   T
  2.6900258997892603  4.6581385266228343 21.5824048008055058   T   T   T
  5.3769453498080431  4.6586717352877081 21.5818226277369369   T   T   T
  8.0666651450604849  4.6576618421265641 21.5857758219757372   T   T   T
  1.3455189940350618  6.9863217085313396 21.5847692600058068   T   T   T
  4.0340395532921338  6.9847250528670015 21.5820979111710542   T   T   T
  6.7222732641806102  6.9863572113774364 21.5832314737965909   T   T   T
  9.4114572737987228  6.9865240299112639 21.5858217644075019   T   T   T
  4.3441678506765475  5.7991123294170679 24.7912019534360084   T   T   T
  5.2051443494011345  5.2454273358136740 24.4000073967008682   T   T   T
  4.3797048346422427  6.8343189431145550 24.4332953846061720   T   T   T
  4.3783275161505824  5.7938194672577277 25.8844054132383334   T   T   T
  3.4175842248923880  5.3247683046656800 24.4530360907081352   T   T   T
