CO2_Au100
 1.0000000000000000
    11.5399826689644573    0.0000000000000000    0.0000000000000000
     0.0000000000000000   11.5399826689644573    0.0000000000000000
     0.0000000000000000    0.0000000000000000   36.1199999999999974
 Au  C   O  
  64   1   2
Selective dynamics
Cartesian
  1.4424978336205572  1.4424978336205572 14.9999999999999982   F   F   F
  4.3274935008616717  1.4424978336205572 14.9999999999999982   F   F   F
  7.2124891681027856  1.4424978336205572 14.9999999999999982   F   F   F
 10.0974848353439004  1.4424978336205572 14.9999999999999982   F   F   F
  1.4424978336205572  4.3274935008616717 14.9999999999999982   F   F   F
  4.3274935008616717  4.3274935008616717 14.9999999999999982   F   F   F
  7.2124891681027856  4.3274935008616717 14.9999999999999982   F   F   F
 10.0974848353439004  4.3274935008616717 14.9999999999999982   F   F   F
  1.4424978336205572  7.2124891681027856 14.9999999999999982   F   F   F
  4.3274935008616717  7.2124891681027856 14.9999999999999982   F   F   F
  7.2124891681027856  7.2124891681027856 14.9999999999999982   F   F   F
 10.0974848353439004  7.2124891681027856 14.9999999999999982   F   F   F
  1.4424978336205572 10.0974848353439004 14.9999999999999982   F   F   F
  4.3274935008616717 10.0974848353439004 14.9999999999999982   F   F   F
  7.2124891681027856 10.0974848353439004 14.9999999999999982   F   F   F
 10.0974848353439004 10.0974848353439004 14.9999999999999982   F   F   F
  0.0000000000000000  0.0000000000000000 17.0399999999999991   F   F   F
  2.8849956672411143  0.0000000000000000 17.0399999999999991   F   F   F
  5.7699913344822287  0.0000000000000000 17.0399999999999991   F   F   F
  8.6549870017233435  0.0000000000000000 17.0399999999999991   F   F   F
  0.0000000000000000  2.8849956672411143 17.0399999999999991   F   F   F
  2.8849956672411143  2.8849956672411143 17.0399999999999991   F   F   F
  5.7699913344822287  2.8849956672411143 17.0399999999999991   F   F   F
  8.6549870017233435  2.8849956672411143 17.0399999999999991   F   F   F
  0.0000000000000000  5.7699913344822287 17.0399999999999991   F   F   F
  2.8849956672411143  5.7699913344822287 17.0399999999999991   F   F   F
  5.7699913344822287  5.7699913344822287 17.0399999999999991   F   F   F
  8.6549870017233435  5.7699913344822287 17.0399999999999991   F   F   F
  0.0000000000000000  8.6549870017233435 17.0399999999999991   F   F   F
  2.8849956672411143  8.6549870017233435 17.0399999999999991   F   F   F
  5.7699913344822287  8.6549870017233435 17.0399999999999991   F   F   F
  8.6549870017233435  8.6549870017233435 17.0399999999999991   F   F   F
  1.4421430066493901  1.4418022059385176 19.1846922630778778   T   T   T
  4.3268155049409263  1.4420580902475730 19.1866343199997971   T   T   T
  7.2132088794993736  1.4415639480470288 19.1840889938058226   T   T   T
 10.0975596868046864  1.4421381399159838 19.1844726767440967   T   T   T
  1.4421567368972918  4.3282152738754975 19.1847139263948101   T   T   T
  4.3268399257818793  4.3279435967557163 19.1866535254536146   T   T   T
  7.2131968314827573  4.3284487731020800 19.1840578503699675   T   T   T
 10.0975602393819344  4.3278680504410083 19.1844754084549542   T   T   T
  1.4424679709373938  7.2124056821714957 19.1846055061602776   T   T   T
  4.3277757622257500  7.2120989814096630 19.1840647708127321   T   T   T
  7.2124117329883761  7.2121799356789964 19.1848319713624527   T   T   T
 10.0975715667126238  7.2123774219397125 19.1849654116955541   T   T   T
  1.4424612688146903 10.0975279593471132 19.1845620650430817   T   T   T
  4.3277766249261651 10.0978250441676849 19.1840183520105008   T   T   T
  7.2124039698214997 10.0977916438165476 19.1848268806752387   T   T   T
 10.0975802846783083 10.0975470125958378 19.1849131953515446   T   T   T
  0.0021962269637424  0.0017704307541670 21.3080709279813618   T   T   T
  2.8864343582469849 11.5398929907270649 21.3061439383658104   T   T   T
  5.7687276020919978  0.0018668899316579 21.3077366655267433   T   T   T
  8.6539870637578389  0.0011672329798703 21.3071877570620991   T   T   T
 11.5393033088647385  2.8849848454134368 21.3058023174995128   T   T   T
  2.8817592462909571  2.8849680837348028 21.2955689464163278   T   T   T
  5.7724752794048770  2.8850442970378647 21.2948565640069525   T   T   T
  8.6557954466283782  2.8849686225077735 21.3034518540809579   T   T   T
  0.0022823540585089  5.7681656945437059 21.3081354514069474   T   T   T
  2.8866733396121500  5.7696601237221516 21.3066553411653707   T   T   T
  5.7687660344600804  5.7677935105242844 21.3083116782691171   T   T   T
  8.6538024352473659  5.7686938347317556 21.3074001644361104   T   T   T
 11.5399428501810135  8.6549789306081166 21.3067294122488029   T   T   T
  2.8852326916785760  8.6549239609984614 21.3068646471005252   T   T   T
  5.7699025523980625  8.6549539429139077 21.3065992122615597   T   T   T
  8.6547461761813409  8.6549704134182388 21.3067198221396836   T   T   T
  4.7516064171503700  2.8468488754566588 24.8226388576310590   T   T   T
  5.9230680286813433  2.8316661759866437 24.9232150432396935   T   T   T
  3.5789274744290718  2.8620125549851565 24.7338074257053862   T   T   T
