NH3_Au111
 1.0000000000000000
     8.6549870017233435    0.0000000000000000    0.0000000000000000
     4.3274935008616717    7.4954386129165247    0.0000000000000000
     0.0000000000000000    0.0000000000000000   37.0667672948810178
 Au  N   H  
  36   1   3
Selective dynamics
Cartesian
  0.0000000000000000  0.0000000000000000 15.0000000000000000   F   F   F
  2.8849956672411143  0.0000000000000000 15.0000000000000000   F   F   F
  5.7699913344822287  0.0000000000000000 15.0000000000000000   F   F   F
  1.4424978336205572  2.4984795376388416 15.0000000000000000   F   F   F
  4.3274935008616717  2.4984795376388416 15.0000000000000000   F   F   F
  7.2124891681027856  2.4984795376388416 15.0000000000000000   F   F   F
  2.8849956672411143  4.9969590752776831 15.0000000000000000   F   F   F
  5.7699913344822287  4.9969590752776831 15.0000000000000000   F   F   F
  8.6549870017233435  4.9969590752776831 15.0000000000000000   F   F   F
  1.4424978336205572  0.8328265125462805 17.3555890982936738   F   F   F
  4.3274935008616717  0.8328265125462805 17.3555890982936738   F   F   F
  7.2124891681027865  0.8328265125462805 17.3555890982936738   F   F   F
  2.8849956672411143  3.3313060501851219 17.3555890982936738   F   F   F
  5.7699913344822287  3.3313060501851219 17.3555890982936738   F   F   F
  8.6549870017233435  3.3313060501851219 17.3555890982936738   F   F   F
  4.3274935008616717  5.8297855878239639 17.3555890982936738   F   F   F
  7.2124891681027856  5.8297855878239639 17.3555890982936738   F   F   F
 10.0974848353439004  5.8297855878239639 17.3555890982936738   F   F   F
  8.6552749407030749  1.6651078706356144 19.8071329589396470   T   T   T
  2.8846690964288566  1.6650093842812781 19.8073778703010639   T   T   T
  5.7700177201731959  1.6656211012562281 19.8055071967206473   T   T   T
 10.0974829226580756  4.1641298087595677 19.8052100244198250   T   T   T
  4.3279135086293836  4.1647443489145841 19.8075281240172458   T   T   T
  7.2120221623201441  4.1646885197560728 19.8075937793749581   T   T   T
 11.5405947658917079  6.6626880829397210 19.8071991999351624   T   T   T
  5.7700678242162926  6.6625043685763590 19.8106541882446336   T   T   T
  8.6543415515638529  6.6627184067091543 19.8074218548033123   T   T   T
  8.6522701729390086  0.0013521814945367 22.3105999311793930   T   T   T
  2.8876618444915878  0.0016821116667434 22.3097797679817909   T   T   T
 10.0977151777886576  7.4934377793105700 22.3176735921765825   T   T   T
  1.4424454787645122  2.4979290647976811 22.3153765966101503   T   T   T
  4.3258116340315906  2.4991521622938770 22.3173534482933391   T   T   T
  7.2140563773047743  2.4995841936033130 22.3174670188688040   T   T   T
  2.8853556141271386  4.9974144741528699 22.3150274442469687   T   T   T
  5.7702021428899002  4.9937583209179142 22.3091717200243238   T   T   T
  8.6545770602764396  4.9972415049761034 22.3145361863565235   T   T   T
  5.8339919715468529  6.5781345353903928 25.5890504659740827   T   T   T
  5.0386212702793056  6.0626021279934399 25.2126543660189242   T   T   T
  1.4528730829243717  0.0306767424545163 25.2169915988077982   T   T   T
  6.6778282164906306  6.1520078770687645 25.2064103755789297   T   T   T
