CH3_Au100
 1.0000000000000000
    11.5399826689644573    0.0000000000000000    0.0000000000000000
     0.0000000000000000   11.5399826689644573    0.0000000000000000
     0.0000000000000000    0.0000000000000000   36.1199999999999974
 Au  C   H  
  64   1   3
Selective dynamics
Cartesian
  1.4424978336205572  1.4424978336205572 14.9999999999999982   F   F   F
  4.3274935008616717  1.4424978336205572 14.9999999999999982   F   F   F
  7.2124891681027856  1.4424978336205572 14.9999999999999982   F   F   F
 10.0974848353439004  1.4424978336205572 14.9999999999999982   F   F   F
  1.4424978336205572  4.3274935008616717 14.9999999999999982   F   F   F
  4.3274935008616717  4.3274935008616717 14.9999999999999982   F   F   F
  7.2124891681027856  4.3274935008616717 14.9999999999999982   F   F   F
 10.0974848353439004  4.3274935008616717 14.9999999999999982   F   F   F
  1.4424978336205572  7.2124891681027856 14.9999999999999982   F   F   F
  4.3274935008616717  7.2124891681027856 14.9999999999999982   F   F   F
  7.2124891681027856  7.2124891681027856 14.9999999999999982   F   F   F
 10.0974848353439004  7.2124891681027856 14.9999999999999982   F   F   F
  1.4424978336205572 10.0974848353439004 14.9999999999999982   F   F   F
  4.3274935008616717 10.0974848353439004 14.9999999999999982   F   F   F
  7.2124891681027856 10.0974848353439004 14.9999999999999982   F   F   F
 10.0974848353439004 10.0974848353439004 14.9999999999999982   F   F   F
  0.0000000000000000  0.0000000000000000 17.0399999999999991   F   F   F
  2.8849956672411143  0.0000000000000000 17.0399999999999991   F   F   F
  5.7699913344822287  0.0000000000000000 17.0399999999999991   F   F   F
  8.6549870017233435  0.0000000000000000 17.0399999999999991   F   F   F
  0.0000000000000000  2.8849956672411143 17.0399999999999991   F   F   F
  2.8849956672411143  2.8849956672411143 17.0399999999999991   F   F   F
  5.7699913344822287  2.8849956672411143 17.0399999999999991   F   F   F
  8.6549870017233435  2.8849956672411143 17.0399999999999991   F   F   F
  0.0000000000000000  5.7699913344822287 17.0399999999999991   F   F   F
  2.8849956672411143  5.7699913344822287 17.0399999999999991   F   F   F
  5.7699913344822287  5.7699913344822287 17.0399999999999991   F   F   F
  8.6549870017233435  5.7699913344822287 17.0399999999999991   F   F   F
  0.0000000000000000  8.6549870017233435 17.0399999999999991   F   F   F
  2.8849956672411143  8.6549870017233435 17.0399999999999991   F   F   F
  5.7699913344822287  8.6549870017233435 17.0399999999999991   F   F   F
  8.6549870017233435  8.6549870017233435 17.0399999999999991   F   F   F
  1.4468417372727973  1.4486801869080645 19.1667659352027009   T   T   T
  4.3326216950562539  1.4376372072604031 19.1774331033693670   T   T   T
  7.2084753204023029  1.4378612010615601 19.1786110771952210   T   T   T
 10.0929599163052472  1.4489152942585131 19.1671208474902350   T   T   T
  1.4286626831002458  4.3425039402501131 19.1924407276028752   T   T   T
  4.3234140949733977  4.3235470506926017 19.1668176550248397   T   T   T
  7.2212655824200054  4.3237294899168006 19.1683077050408635   T   T   T
 10.1145859753154070  4.3438301303296978 19.1966196696581903   T   T   T
  1.4272894102235767  7.1962332364420831 19.1985106838083759   T   T   T
  4.3227997637559090  7.2170996950688471 19.1669726551875783   T   T   T
  7.2235708987214133  7.2159420126493732 19.1684570918734458   T   T   T
 10.1175250008583575  7.1934966720621034 19.2032014052536724   T   T   T
  1.4466382911674318 10.0903684592696994 19.1677954833776738   T   T   T
  4.3326512708685208 10.1017940409961877 19.1784719569473658   T   T   T
  7.2098077537237524 10.1003432678906737 19.1795937355346773   T   T   T
 10.0943318684660532 10.0885534329127129 19.1682200974349080   T   T   T
 11.5395610272562728  0.0020251812002738 21.2902961654958212   T   T   T
  2.8788655111865094  0.0001441357477034 21.2987490255310234   T   T   T
  5.7694807791031790  0.0004585096092031 21.3124667233242882   T   T   T
  8.6597875686921775 11.5379901063034787 21.2983561691669969   T   T   T
  0.0022803036252743  2.8457351219044527 21.2800564156631324   T   T   T
  2.8931620947729066  2.8782412620520339 21.2806224927912204   T   T   T
  5.7707944511331295  2.8909724246255561 21.2988442892098746   T   T   T
  8.6491047942944892  2.8769858741560470 21.2841045140930198   T   T   T
 11.5268729927400528  5.7711777225222569 21.4899010931925041   T   T   T
  2.9241583451394644  5.7687058120309009 21.2779871017843796   T   T   T
  5.7703736488459567  5.7705418784687570 21.2906567956081929   T   T   T
  8.6121035080759736  5.7675292784972960 21.2899164953437712   T   T   T
  0.0036343306935458  8.6977971140051888 21.2868156200005387   T   T   T
  2.8941307310480022  8.6618306245243275 21.2830600031382247   T   T   T
  5.7730504071434865  8.6499486349183758 21.2985644299707779   T   T   T
  8.6520857794598509  8.6594509985037877 21.2883009457577259   T   T   T
  0.1100551503052966  5.6924559712657476 23.5829236272044049   T   T   T
  0.4638224604715875  6.6765624591049146 23.9031786083565123   T   T   T
 10.6379767887112298  5.4749430530217120 23.9358417704724324   T   T   T
  0.8185645849906642  4.8935553926479871 23.8196621397841604   T   T   T
