SO2_Rh100
 1.0000000000000000
     8.0673812665573212    0.0000000000000000    0.0000000000000000
     0.0000000000000000    8.0673812665573212    0.0000000000000000
     0.0000000000000000    0.0000000000000000   35.7044999999999959
 Rh  S   O  
  36   1   2
Selective dynamics
Cartesian
  1.3445635444262201  1.3445635444262201 14.9999999999999964   F   F   F
  4.0336906332786597  1.3445635444262201 14.9999999999999964   F   F   F
  6.7228177221311043  1.3445635444262201 14.9999999999999964   F   F   F
  1.3445635444262201  4.0336906332786597 14.9999999999999964   F   F   F
  4.0336906332786597  4.0336906332786597 14.9999999999999964   F   F   F
  6.7228177221311043  4.0336906332786597 14.9999999999999964   F   F   F
  1.3445635444262201  6.7228177221311043 14.9999999999999964   F   F   F
  4.0336906332786597  6.7228177221311043 14.9999999999999964   F   F   F
  6.7228177221311043  6.7228177221311043 14.9999999999999964   F   F   F
  0.0000000000000000  0.0000000000000000 16.9014999999999986   F   F   F
  2.6891270888524401  0.0000000000000000 16.9014999999999986   F   F   F
  5.3782541777048802  0.0000000000000000 16.9014999999999986   F   F   F
  0.0000000000000000  2.6891270888524401 16.9014999999999986   F   F   F
  2.6891270888524401  2.6891270888524401 16.9014999999999986   F   F   F
  5.3782541777048802  2.6891270888524401 16.9014999999999986   F   F   F
  0.0000000000000000  5.3782541777048802 16.9014999999999986   F   F   F
  2.6891270888524401  5.3782541777048802 16.9014999999999986   F   F   F
  5.3782541777048802  5.3782541777048802 16.9014999999999986   F   F   F
  1.3461303876252635  1.3494904175580904 18.8482112003338216   T   T   T
  4.0345592426758641  1.3408025900424063 18.8307984877211148   T   T   T
  6.7409791924492888  1.3500767243443286 18.8511917773080278   T   T   T
  1.3427261629129976  4.0325564879982245 18.8411592474895713   T   T   T
  4.0409156527328269  4.0335345475144138 18.8383779970373588   T   T   T
  6.7276395851708788  4.0331637224711168 18.8348087954776382   T   T   T
  1.3455276058312295  6.7155260391069316 18.8486188323110220   T   T   T
  4.0353851439409008  6.7262319758297746 18.8310025831337882   T   T   T
  6.7406200461794237  6.7157455209350392 18.8515312820451477   T   T   T
  0.0152590277486496  8.0666280511466848 20.7016878498558512   T   T   T
  2.6979168566903189  8.0673543072611622 20.6948073569286599   T   T   T
  5.3745546050127366  0.0003848157515293 20.6889941313424792   T   T   T
  8.0502232138954657  2.6425439735877769 20.7313959821925344   T   T   T
  2.7126217105665420  2.6615161465767634 20.7382056522046554   T   T   T
  5.3794949335800819  2.6888637726659139 20.6750329180507215   T   T   T
  8.0487048132823134  5.4218893023798529 20.7325226336923727   T   T   T
  2.7118298995163839  5.4050230583479193 20.7371102916242265   T   T   T
  5.3791866362710730  5.3777183592049775 20.6766402842573420   T   T   T
  2.0693533129374839  4.0346885855430576 22.3504567326644121   T   T   T
  0.4793273011552931  4.0311044158619227 22.3849776026136595   T   T   T
  2.5600972217108100  4.0392988203209166 23.7277706065445351   T   T   T
