CH3CHO molecule | 7 atoms | 20x20x20 A box
   1.00000000000000
   20.0000000000000000    0.0000000000000000    0.0000000000000000
    0.0000000000000000   20.0000000000000000    0.0000000000000000
    0.0000000000000000    0.0000000000000000   20.0000000000000000
  C  O  H
  2  1  4
Cartesian
    9.0771927741667007    9.9605663735270209    9.8823968513740308
   10.5709755781822707   10.0631006945876909    9.9110113769299364
   11.3180254267307134    9.1186550706897069    9.6779189587319383
    8.6856193119281286   10.6525693638812839    9.1332443487311590
    8.7761034265446902    8.9412331811359227    9.6284939590165930
    8.6819745732692866   10.2218533740654287   10.8667556512688410
   10.9756587388468070   11.0587668188640773   10.1592468907151599
