H2O_Ir111
 1.0000000000000000
    10.8611601590253706    0.0000000000000000    0.0000000000000000
     0.0000000000000000    9.4060406122874021    0.0000000000000000
     0.0000000000000000    0.0000000000000000   36.6510751010644924
 Ir  O   H  
  64   1   2
Selective dynamics
Cartesian
  0.0000000000000000  0.0000000000000000 15.0000000000000018   F   F   F
  2.7152900397563422  0.0000000000000000 15.0000000000000018   F   F   F
  5.4305800795126844  0.0000000000000000 15.0000000000000018   F   F   F
  8.1458701192690270  0.0000000000000000 15.0000000000000018   F   F   F
  1.3576450198781711  2.3515101530718505 15.0000000000000018   F   F   F
  4.0729350596345135  2.3515101530718505 15.0000000000000018   F   F   F
  6.7882250993908571  2.3515101530718505 15.0000000000000018   F   F   F
  9.5035151391471988  2.3515101530718505 15.0000000000000018   F   F   F
  0.0000000000000000  4.7030203061437010 15.0000000000000018   F   F   F
  2.7152900397563422  4.7030203061437010 15.0000000000000018   F   F   F
  5.4305800795126844  4.7030203061437010 15.0000000000000018   F   F   F
  8.1458701192690270  4.7030203061437010 15.0000000000000018   F   F   F
  1.3576450198781711  7.0545304592155516 15.0000000000000018   F   F   F
  4.0729350596345135  7.0545304592155516 15.0000000000000018   F   F   F
  6.7882250993908571  7.0545304592155516 15.0000000000000018   F   F   F
  9.5035151391471988  7.0545304592155516 15.0000000000000018   F   F   F
  1.3576450198781711  0.7838367176906168 17.2170250336881665   F   F   F
  4.0729350596345135  0.7838367176906168 17.2170250336881665   F   F   F
  6.7882250993908571  0.7838367176906168 17.2170250336881665   F   F   F
  9.5035151391471988  0.7838367176906168 17.2170250336881665   F   F   F
  0.0000000000000000  3.1353468707624672 17.2170250336881665   F   F   F
  2.7152900397563422  3.1353468707624672 17.2170250336881665   F   F   F
  5.4305800795126844  3.1353468707624672 17.2170250336881665   F   F   F
  8.1458701192690270  3.1353468707624672 17.2170250336881665   F   F   F
  1.3576450198781711  5.4868570238343182 17.2170250336881665   F   F   F
  4.0729350596345135  5.4868570238343182 17.2170250336881665   F   F   F
  6.7882250993908571  5.4868570238343182 17.2170250336881665   F   F   F
  9.5035151391471988  5.4868570238343182 17.2170250336881665   F   F   F
  0.0000000000000000  7.8383671769061687 17.2170250336881665   F   F   F
  2.7152900397563422  7.8383671769061687 17.2170250336881665   F   F   F
  5.4305800795126844  7.8383671769061687 17.2170250336881665   F   F   F
  8.1458701192690270  7.8383671769061687 17.2170250336881665   F   F   F
  0.0003135779714315  1.5652876820934003 19.4417878733156968   T   T   T
  2.7169117095691515  1.5655130128529682 19.4433809782749591   T   T   T
  5.4380634201222806  1.5717144707141049 19.4685371510204419   T   T   T
  8.1398556149376269  1.5714473231283550 19.4715970565874059   T   T   T
  1.3572198479988145  3.9183477850545265 19.4468316213862025   T   T   T
  4.0721002912517932  3.9194746831089664 19.4456622092408047   T   T   T
  6.7876129121156286  3.9081275937273512 19.4706745011742939   T   T   T
  9.5027432800759701  3.9192826934933387 19.4477539275337072   T   T   T
  0.0010163537108331  6.2698631336120112 19.4465715459425752   T   T   T
  2.7141290997689587  6.2706569613154013 19.4460547408392621   T   T   T
  5.4317812195502615  6.2711458979644972 19.4419272380656132   T   T   T
  8.1450040677001301  6.2706171180767871 19.4421837087703473   T   T   T
  1.3575379110977130  8.6222397762787981 19.4487004242245050   T   T   T
  4.0704343565693391  8.6225017240255628 19.4400066847587638   T   T   T
  6.7876692886084724  8.6228636415609543 19.4481421744053904   T   T   T
  9.5054754477088022  8.6229951124514912 19.4416347762384767   T   T   T
 10.8589010066503420  0.0007420580655834 21.6594926141700235   T   T   T
  2.7178070457700105  0.0000856667618678 21.6602867732451116   T   T   T
  5.4182697530918675  9.3893811754493370 21.6562496006103196   T   T   T
  8.1551317865051409  9.3924485731955283 21.6514061009161232   T   T   T
  1.3539280548377397  2.3531050082616263 21.6590003031185780   T   T   T
  4.0545579375593732  2.3503514662434144 21.6548589495842414   T   T   T
  6.7844177061876048  2.3543663385493048 21.6811938351812508   T   T   T
  9.5222681132440332  2.3500581011602666 21.6575207831418126   T   T   T
 10.8581759547659118  4.7023441087640228 21.6630772916644077   T   T   T
  2.7180994665024030  4.7025213326534105 21.6595620058713152   T   T   T
  5.4218853636187898  4.7185210675173854 21.6521994868855074   T   T   T
  8.1532881315802541  4.7180006623943349 21.6573020197626178   T   T   T
  1.3574487018459633  7.0542874048306867 21.6600037299153527   T   T   T
  4.0686728788524151  7.0558259966432537 21.6609160336272275   T   T   T
  6.7879449343301763  7.0554910390194809 21.6605610541741953   T   T   T
  9.5077291316249060  7.0550296192452633 21.6595935441957543   T   T   T
  6.7999808567814739  2.2776981574063893 23.9236484417890054   T   T   T
  6.5868383023675490  1.3345299680289109 24.1078708409687152   T   T   T
  7.7496752276982406  2.4145043071484849 24.1386762311711713   T   T   T
