SO2_Pd100
 1.0000000000000000
     8.2519361364470107    0.0000000000000000    0.0000000000000000
     0.0000000000000000    8.2519361364470107    0.0000000000000000
     0.0000000000000000    0.0000000000000000   35.8350000000000009
 Pd  S   O  
  36   1   2
Selective dynamics
Cartesian
  1.3753226894078350  1.3753226894078350 15.0000000000000000   F   F   F
  4.1259680682235054  1.3753226894078350 15.0000000000000000   F   F   F
  6.8766134470391780  1.3753226894078350 15.0000000000000000   F   F   F
  1.3753226894078350  4.1259680682235054 15.0000000000000000   F   F   F
  4.1259680682235054  4.1259680682235054 15.0000000000000000   F   F   F
  6.8766134470391780  4.1259680682235054 15.0000000000000000   F   F   F
  1.3753226894078350  6.8766134470391780 15.0000000000000000   F   F   F
  4.1259680682235054  6.8766134470391780 15.0000000000000000   F   F   F
  6.8766134470391780  6.8766134470391780 15.0000000000000000   F   F   F
  0.0000000000000000  0.0000000000000000 16.9450000000000003   F   F   F
  2.7506453788156700  0.0000000000000000 16.9450000000000003   F   F   F
  5.5012907576313399  0.0000000000000000 16.9450000000000003   F   F   F
  0.0000000000000000  2.7506453788156700 16.9450000000000003   F   F   F
  2.7506453788156700  2.7506453788156700 16.9450000000000003   F   F   F
  5.5012907576313399  2.7506453788156700 16.9450000000000003   F   F   F
  0.0000000000000000  5.5012907576313399 16.9450000000000003   F   F   F
  2.7506453788156700  5.5012907576313399 16.9450000000000003   F   F   F
  5.5012907576313399  5.5012907576313399 16.9450000000000003   F   F   F
  1.3740706684311779  1.3785311884240465 18.9465127726200038   T   T   T
  4.1256809541373620  1.3731062559603318 18.9343301634969876   T   T   T
  6.8759059549382675  1.3765468333184907 18.9464809191990859   T   T   T
  1.3752601615731825  4.1181719563573917 18.9469655818293035   T   T   T
  4.1243992462675916  4.1260678854209134 18.9423850226977954   T   T   T
  6.8747167790747064  4.1159602022201733 18.9465575556517152   T   T   T
  1.3805670637139615  6.8595910404040650 18.9511891822766430   T   T   T
  4.1252578601623515  6.8734625858658127 18.9361567820668739   T   T   T
  6.8701463781658152  6.8581507718741666 18.9507786846897908   T   T   T
  8.2512528897297805  8.2413828605213570 20.9347134456958628   T   T   T
  2.7472760474042626  0.0030880833118282 20.9158343203874502   T   T   T
  5.5038120077036545  8.2491715162741421 20.9172623229587877   T   T   T
  8.2509409520501400  2.7398474696570885 20.9563688644011847   T   T   T
  2.6947774141283491  2.7192502110318988 20.9699530223121187   T   T   T
  5.5501339522539848  2.7170124562300217 20.9737622716136904   T   T   T
  8.2495592108359617  5.4800627732929961 20.9354781954450324   T   T   T
  2.6896658540724658  5.5373711811835262 20.9497644343144849   T   T   T
  5.5586325426083203  5.5306008614350146 20.9479135825025082   T   T   T
  4.1221216578982416  3.3623131467135901 22.5826219376767412   T   T   T
  4.1230105802398560  4.8921965449946230 22.6708001943426751   T   T   T
  4.1146781172115610  2.7370777170376557 23.8979609763239189   T   T   T
