C2H4_Rh110
 1.0000000000000000
    11.4089999999999989    0.0000000000000000    0.0000000000000000
     0.0000000000000000    5.3782541777048811    0.0000000000000000
     0.0000000000000000    0.0000000000000000   34.0336906332786597
 Rh  C   H  
  24   2   4
Selective dynamics
Cartesian
  1.9014999999999997  1.3445635444262203 15.0000000000000000   F   F   F
  5.7044999999999995  1.3445635444262203 15.0000000000000000   F   F   F
  9.5074999999999985  1.3445635444262203 15.0000000000000000   F   F   F
  1.9014999999999997  4.0336906332786606 15.0000000000000000   F   F   F
  5.7044999999999995  4.0336906332786606 15.0000000000000000   F   F   F
  9.5074999999999985  4.0336906332786606 15.0000000000000000   F   F   F
  0.0000000000000000  0.0000000000000000 16.3445635444262187   F   F   F
  3.8029999999999995  0.0000000000000000 16.3445635444262187   F   F   F
  7.6059999999999990  0.0000000000000000 16.3445635444262187   F   F   F
  0.0000000000000000  2.6891270888524406 16.3445635444262187   F   F   F
  3.8029999999999995  2.6891270888524406 16.3445635444262187   F   F   F
  7.6059999999999990  2.6891270888524406 16.3445635444262187   F   F   F
  1.9120676631945104  1.3397283809482468 17.7581391505303294   T   T   T
  5.6974400210223122  1.3353385195995835 17.7553651535296666   T   T   T
  9.5045668058014279  1.3400649515436915 17.7356870064138619   T   T   T
  1.9142362645270086  4.0299207192330844 17.7284076838641056   T   T   T
  5.6919025842467503  4.0254510527949385 17.7299252153161824   T   T   T
  9.5056649089136886  4.0288251262597745 17.7421247472689920   T   T   T
  0.0013932044758440  5.3728966980070503 18.9821782740442053   T   T   T
  3.8093066887072267  0.0000973924343825 19.0439494322119991   T   T   T
  7.5997261240387317  5.3691484919623873 18.9860506536544840   T   T   T
  0.0018685524657552  2.6807245531126798 18.9831041185902265   T   T   T
  3.7994025462483298  2.6667135114115368 19.0386366669379612   T   T   T
  7.5989208116569378  2.6793562575520578 18.9866512086326935   T   T   T
  3.8251339749315481  4.6842333359287380 21.0065503246439782   T   T   T
  3.6201185295180496  3.2204337578718270 21.0223922710054083   T   T   T
  3.0074229505298851  5.2843847737510634 21.4326257578566661   T   T   T
  4.8009270539962161  5.0166893790945979 21.3846725975453218   T   T   T
  2.6132634036565747  2.8902895688571677 21.3108840386151286   T   T   T
  4.3965506054701793  2.6276249391260369 21.5258100242798740   T   T   T
