CH4_Ir111
 1.0000000000000000
    10.8611601590253706    0.0000000000000000    0.0000000000000000
     0.0000000000000000    9.4060406122874021    0.0000000000000000
     0.0000000000000000    0.0000000000000000   36.6510751010644924
 Ir  C   H  
  64   1   4
Selective dynamics
Cartesian
  0.0000000000000000  0.0000000000000000 15.0000000000000018   F   F   F
  2.7152900397563422  0.0000000000000000 15.0000000000000018   F   F   F
  5.4305800795126844  0.0000000000000000 15.0000000000000018   F   F   F
  8.1458701192690270  0.0000000000000000 15.0000000000000018   F   F   F
  1.3576450198781711  2.3515101530718505 15.0000000000000018   F   F   F
  4.0729350596345135  2.3515101530718505 15.0000000000000018   F   F   F
  6.7882250993908571  2.3515101530718505 15.0000000000000018   F   F   F
  9.5035151391471988  2.3515101530718505 15.0000000000000018   F   F   F
  0.0000000000000000  4.7030203061437010 15.0000000000000018   F   F   F
  2.7152900397563422  4.7030203061437010 15.0000000000000018   F   F   F
  5.4305800795126844  4.7030203061437010 15.0000000000000018   F   F   F
  8.1458701192690270  4.7030203061437010 15.0000000000000018   F   F   F
  1.3576450198781711  7.0545304592155516 15.0000000000000018   F   F   F
  4.0729350596345135  7.0545304592155516 15.0000000000000018   F   F   F
  6.7882250993908571  7.0545304592155516 15.0000000000000018   F   F   F
  9.5035151391471988  7.0545304592155516 15.0000000000000018   F   F   F
  1.3576450198781711  0.7838367176906168 17.2170250336881665   F   F   F
  4.0729350596345135  0.7838367176906168 17.2170250336881665   F   F   F
  6.7882250993908571  0.7838367176906168 17.2170250336881665   F   F   F
  9.5035151391471988  0.7838367176906168 17.2170250336881665   F   F   F
  0.0000000000000000  3.1353468707624672 17.2170250336881665   F   F   F
  2.7152900397563422  3.1353468707624672 17.2170250336881665   F   F   F
  5.4305800795126844  3.1353468707624672 17.2170250336881665   F   F   F
  8.1458701192690270  3.1353468707624672 17.2170250336881665   F   F   F
  1.3576450198781711  5.4868570238343182 17.2170250336881665   F   F   F
  4.0729350596345135  5.4868570238343182 17.2170250336881665   F   F   F
  6.7882250993908571  5.4868570238343182 17.2170250336881665   F   F   F
  9.5035151391471988  5.4868570238343182 17.2170250336881665   F   F   F
  0.0000000000000000  7.8383671769061687 17.2170250336881665   F   F   F
  2.7152900397563422  7.8383671769061687 17.2170250336881665   F   F   F
  5.4305800795126844  7.8383671769061687 17.2170250336881665   F   F   F
  8.1458701192690270  7.8383671769061687 17.2170250336881665   F   F   F
  0.0001713026048876  1.5676592835804879 19.4476424879482614   T   T   T
  2.7167939896949473  1.5688558686878935 19.4531987870999039   T   T   T
  5.4291455654790965  1.5686472821173540 19.4537809838947169   T   T   T
  8.1456824921348581  1.5675646516416128 19.4478283980056936   T   T   T
  1.3572095500273915  3.9192669783072978 19.4483040451916516   T   T   T
  4.0728644993306222  3.9176011064287084 19.4524277662691603   T   T   T
  6.7886025347436885  3.9191801814961034 19.4485349208808280   T   T   T
  9.5035516283555612  3.9193127177192770 19.4471358240895249   T   T   T
  0.0000896118993695  6.2707819856053000 19.4473125113323562   T   T   T
  2.7156336418327092  6.2705743799837839 19.4471512330209322   T   T   T
  5.4303831896699117  6.2704380065845724 19.4470700440485125   T   T   T
  8.1457448401798818  6.2707432244461065 19.4473673571589316   T   T   T
  1.3574434940453630  8.6222382873148717 19.4475908567713169   T   T   T
  4.0730699662934704  8.6221905108898973 19.4501294470673010   T   T   T
  6.7881118603839150  8.6223090133309341 19.4483324242887043   T   T   T
  9.5035072541617254  8.6222381230419316 19.4474603492449347   T   T   T
  0.0008926003688896  0.0001159859328355 21.6598191623787102   T   T   T
  2.7156332375457444  9.4060011052990529 21.6560506739567202   T   T   T
  5.4302968818075357  0.0000177878016399 21.6547419757814978   T   T   T
  8.1451916584361008  0.0000188448799423 21.6595787511605096   T   T   T
  1.3580540407237389  2.3516343490912943 21.6572028604107913   T   T   T
  4.0733507811680285  2.3502317283315546 21.6544253174104000   T   T   T
  6.7879546940289570  2.3517088645356439 21.6560802382054121   T   T   T
  9.5029025628853194  2.3514211734773407 21.6599241464639114   T   T   T
  0.0001313033509362  4.7031974860364780 21.6598299450404532   T   T   T
  2.7146473134660556  4.7018285752284052 21.6583155965438330   T   T   T
  5.4312139227915992  4.7019496724009455 21.6578698878232991   T   T   T
  8.1457585711287575  4.7028966116155413 21.6599494041389349   T   T   T
  1.3568760011758585  7.0553825455216117 21.6601209621042798   T   T   T
  4.0733494675386588  7.0556373487916462 21.6599427296698153   T   T   T
  6.7887136610843886  7.0556108301491625 21.6599837910833841   T   T   T
  9.5036856967532550  7.0542061708921606 21.6597016636808135   T   T   T
  4.2630203172940400  1.7139528838142295 24.9609177403887728   T   T   T
  5.2054866249859453  1.2915906879959418 24.6011318475444654   T   T   T
  3.4285063534833449  1.1091104747957590 24.5945158408840108   T   T   T
  4.1588347757624184  2.7395915951768814 24.5910625981253510   T   T   T
  4.2580711049833377  1.7197121029776463 26.0542216671198901   T   T   T
