CH3CH2OH_Pd110
 1.0000000000000000
    15.5600000000000005    0.0000000000000000    0.0000000000000000
     0.0000000000000000   11.0025815152626798    0.0000000000000000
     0.0000000000000000    0.0000000000000000   34.1259680682235071
 Pd  C   O   H  
  64   2   1   6
Selective dynamics
Cartesian
  1.9450000000000001  1.3753226894078348 14.9999999999999929   F   F   F
  5.8350000000000000  1.3753226894078348 14.9999999999999929   F   F   F
  9.7249999999999996  1.3753226894078348 14.9999999999999929   F   F   F
 13.6150000000000002  1.3753226894078348 14.9999999999999929   F   F   F
  1.9450000000000001  4.1259680682235054 14.9999999999999929   F   F   F
  5.8350000000000000  4.1259680682235054 14.9999999999999929   F   F   F
  9.7249999999999996  4.1259680682235054 14.9999999999999929   F   F   F
 13.6150000000000002  4.1259680682235054 14.9999999999999929   F   F   F
  1.9450000000000001  6.8766134470391735 14.9999999999999929   F   F   F
  5.8350000000000000  6.8766134470391735 14.9999999999999929   F   F   F
  9.7249999999999996  6.8766134470391735 14.9999999999999929   F   F   F
 13.6150000000000002  6.8766134470391735 14.9999999999999929   F   F   F
  1.9450000000000001  9.6272588258548453 14.9999999999999929   F   F   F
  5.8350000000000000  9.6272588258548453 14.9999999999999929   F   F   F
  9.7249999999999996  9.6272588258548453 14.9999999999999929   F   F   F
 13.6150000000000002  9.6272588258548453 14.9999999999999929   F   F   F
  0.0000000000000000  0.0000000000000000 16.3753226894078345   F   F   F
  3.8900000000000001  0.0000000000000000 16.3753226894078345   F   F   F
  7.7800000000000002  0.0000000000000000 16.3753226894078345   F   F   F
 11.6699999999999999  0.0000000000000000 16.3753226894078345   F   F   F
  0.0000000000000000  2.7506453788156695 16.3753226894078345   F   F   F
  3.8900000000000001  2.7506453788156695 16.3753226894078345   F   F   F
  7.7800000000000002  2.7506453788156695 16.3753226894078345   F   F   F
 11.6699999999999999  2.7506453788156695 16.3753226894078345   F   F   F
  0.0000000000000000  5.5012907576313390 16.3753226894078345   F   F   F
  3.8900000000000001  5.5012907576313390 16.3753226894078345   F   F   F
  7.7800000000000002  5.5012907576313390 16.3753226894078345   F   F   F
 11.6699999999999999  5.5012907576313390 16.3753226894078345   F   F   F
  0.0000000000000000  8.2519361364470107 16.3753226894078345   F   F   F
  3.8900000000000001  8.2519361364470107 16.3753226894078345   F   F   F
  7.7800000000000002  8.2519361364470107 16.3753226894078345   F   F   F
 11.6699999999999999  8.2519361364470107 16.3753226894078345   F   F   F
  1.9360761789632233  1.3693534556382252 17.8137027209754990   T   T   T
  5.8420647983481686  1.3791745091983638 17.8241906181486200   T   T   T
  9.7126974488937279  1.3836663514028298 17.8186831912833625   T   T   T
 13.6151253050276040  1.3763144276243220 17.8229413653556641   T   T   T
  1.9425798744823897  4.1320213270239510 17.8190106826832881   T   T   T
  5.8390610282238944  4.1212530873350115 17.8223409042960625   T   T   T
  9.7275973781577854  4.1266772995114156 17.8067090493283686   T   T   T
 13.6141172033297710  4.1253944539376199 17.8231065455794493   T   T   T
  1.9479227022539272  6.8774108121971302 17.8232236205330707   T   T   T
  5.8290896975574400  6.8753890684859966 17.8236177409517964   T   T   T
  9.7371664103875144  6.8870544117160781 17.8131140927461509   T   T   T
 13.6137878021892256  6.8767594314959721 17.8220383750512212   T   T   T
  1.9472689155131377  9.6246830461016586 17.8233332051289892   T   T   T
  5.8310633127556288  9.6321991373788372 17.8280253771503645   T   T   T
  9.7285395354751838  9.6305217328613768 17.8183018400540689   T   T   T
 13.6143187584804242  9.6287369129105631 17.8219817605555484   T   T   T
 15.5591950454246550 11.0002411603335979 19.1696557134659464   T   T   T
  3.8915490583836649  0.0087548170970061 19.1656787666875381   T   T   T
  7.7852762450862292 10.9926437680933500 19.1573242466882085   T   T   T
 11.6625991641631632  0.0064089502215119 19.1649766838501812   T   T   T
  0.0018931194310680  2.7509061331900808 19.1674128917876203   T   T   T
  3.8625694398209540  2.7481260653499970 19.1446521780463819   T   T   T
  7.8356419112545481  2.7489918496338963 19.2090529789443103   T   T   T
 11.6593051662108476  2.7506010616777550 19.1667641532228004   T   T   T
 15.5590599411641985  5.5029135992761544 19.1676217014693826   T   T   T
  3.8987182366071935  5.4910104812234053 19.1761655438293808   T   T   T
  7.8019476630315570  5.5259398261356285 19.1387413891847693   T   T   T
 11.6668713995616855  5.5000918385169442 19.1688148615417404   T   T   T
 15.5595409096873798  8.2515724912568569 19.1671684090993466   T   T   T
  3.8879900042904847  8.2491936683448603 19.1731928947667143   T   T   T
  7.7835819954330541  8.2533299730816818 19.1594989435890852   T   T   T
 11.6733445643064471  8.2559088611082192 19.1717782975685225   T   T   T
  7.4248695007047116  1.2892897656924269 22.3972047910978276   T   T   T
  6.3054965988116782  2.2364343366023416 22.0767169752068426   T   T   T
  6.7476875136820222  3.2068672673079033 21.0884473155287218   T   T   T
  7.1336260266244658  0.6422992552188908 23.2331809299865242   T   T   T
  7.6682893682549658  0.6407870167328181 21.5363462584616734   T   T   T
  8.3292873077796230  1.8383119897575593 22.6800730631110454   T   T   T
  5.9815476501426623  2.8072696664489345 22.9650007739242454   T   T   T
  5.4167110480330809  1.7072355481042694 21.6814011227693086   T   T   T
  5.9679439715112066  3.6926893271499277 20.7371285984691163   T   T   T
