H2S_Ag100
 1.0000000000000000
     8.6762002051589384    0.0000000000000000    0.0000000000000000
     0.0000000000000000    8.6762002051589384    0.0000000000000000
     0.0000000000000000    0.0000000000000000   36.1349999999999980
 Ag  S   H  
  36   1   2
Selective dynamics
Cartesian
  1.4460333675264894  1.4460333675264894 15.0000000000000000   F   F   F
  4.3381001025794692  1.4460333675264894 15.0000000000000000   F   F   F
  7.2301668376324475  1.4460333675264894 15.0000000000000000   F   F   F
  1.4460333675264894  4.3381001025794692 15.0000000000000000   F   F   F
  4.3381001025794692  4.3381001025794692 15.0000000000000000   F   F   F
  7.2301668376324475  4.3381001025794692 15.0000000000000000   F   F   F
  1.4460333675264894  7.2301668376324475 15.0000000000000000   F   F   F
  4.3381001025794692  7.2301668376324475 15.0000000000000000   F   F   F
  7.2301668376324475  7.2301668376324475 15.0000000000000000   F   F   F
  0.0000000000000000  0.0000000000000000 17.0450000000000017   F   F   F
  2.8920667350529787  0.0000000000000000 17.0450000000000017   F   F   F
  5.7841334701059575  0.0000000000000000 17.0450000000000017   F   F   F
  0.0000000000000000  2.8920667350529787 17.0450000000000017   F   F   F
  2.8920667350529787  2.8920667350529787 17.0450000000000017   F   F   F
  5.7841334701059575  2.8920667350529787 17.0450000000000017   F   F   F
  0.0000000000000000  5.7841334701059575 17.0450000000000017   F   F   F
  2.8920667350529787  5.7841334701059575 17.0450000000000017   F   F   F
  5.7841334701059575  5.7841334701059575 17.0450000000000017   F   F   F
  1.4511217229714268  1.4506391395362817 19.1737181798790068   T   T   T
  4.3331521510497870  1.4507927297621990 19.1738792714219137   T   T   T
  7.2289991073407807  1.4421197711030029 19.1589537129741032   T   T   T
  1.4511294452399826  4.3338520308250184 19.1734478809544555   T   T   T
  4.3333626623741486  4.3334609656087197 19.1737940038929651   T   T   T
  7.2289448308502138  4.3418201172753257 19.1589366109647372   T   T   T
  1.4423665740395353  7.2303087071324477 19.1580536104581327   T   T   T
  4.3415749264172998  7.2302546081970229 19.1598206104643864   T   T   T
  7.2290981686613200  7.2304040684700537 19.1634816550311271   T   T   T
  0.0038683274502342  0.0028565327074941 21.2555903791402869   T   T   T
  2.8904552459058133  8.6664884300915972 21.2431854420332122   T   T   T
  5.7816996273622081  0.0033606307982148 21.2516430456479206   T   T   T
  8.6573190284672528  2.8912178731800418 21.2361653694256738   T   T   T
  2.9020837985917427  2.8912537907293063 21.2861504160227248   T   T   T
  5.7929370585928055  2.8920652484162761 21.2435367801114410   T   T   T
  0.0034815249769924  5.7817511885748569 21.2556698830295225   T   T   T
  2.8909856722251144  5.7960785556388554 21.2408989939003092   T   T   T
  5.7820997362754358  5.7810568874876065 21.2511705952090324   T   T   T
  2.3682535300337548  2.9725910524990948 24.3172946433123478   T   T   T
  1.5317252847760678  1.9663340207201805 23.9861631164973694   T   T   T
  1.4760970720498081  3.8971073274621051 23.9008954431893841   T   T   T
