CH3CHO_Cu110
 1.0000000000000000
    10.8300000000000001    0.0000000000000000    0.0000000000000000
     0.0000000000000000    5.1053109601668734    0.0000000000000000
     0.0000000000000000    0.0000000000000000   33.8289832201251528
 Cu  C   O   H  
  24   2   1   4
Selective dynamics
Cartesian
  1.8049999999999999  1.2763277400417183 14.9999999999999982   F   F   F
  5.4149999999999991  1.2763277400417183 14.9999999999999982   F   F   F
  9.0249999999999986  1.2763277400417183 14.9999999999999982   F   F   F
  1.8049999999999999  3.8289832201251550 14.9999999999999982   F   F   F
  5.4149999999999991  3.8289832201251550 14.9999999999999982   F   F   F
  9.0249999999999986  3.8289832201251550 14.9999999999999982   F   F   F
  0.0000000000000000  0.0000000000000000 16.2763277400417152   F   F   F
  3.6099999999999999  0.0000000000000000 16.2763277400417152   F   F   F
  7.2199999999999998  0.0000000000000000 16.2763277400417152   F   F   F
  0.0000000000000000  2.5526554800834367 16.2763277400417152   F   F   F
  3.6099999999999999  2.5526554800834367 16.2763277400417152   F   F   F
  7.2199999999999998  2.5526554800834367 16.2763277400417152   F   F   F
  1.8073259027008655  1.2675016897125502 17.5999911681372403   T   T   T
  5.4100137512614657  1.2651833791211826 17.6067008853296301   T   T   T
  9.0258093850921064  1.2792034566845734 17.6116819577736514   T   T   T
  1.8051300745184531  3.8358777030383258 17.5934380365107224   T   T   T
  5.4122982534789168  3.8359868821920711 17.5999071577587252   T   T   T
  9.0261002573650213  3.8257267239928074 17.6112772340391324   T   T   T
 10.8264517935627307  5.1045722917716709 18.7715035513005510   T   T   T
  3.6061848695870471  0.0003951098113676 18.8757816619283219   T   T   T
  7.2275327506269740  5.1043807071445730 18.7710565120393120   T   T   T
  0.0115630049948699  2.5517792867329021 18.7708519393176019   T   T   T
  3.6071635904953641  2.5466059130589214 18.7132054601320732   T   T   T
  7.2096858889839224  2.5512728365691415 18.7739425965044546   T   T   T
  4.1086379339416190  0.2829867380127612 23.1731090702580218   T   T   T
  4.1998864595936354  0.4971235678991357 21.7088900851199185   T   T   T
  3.5585106389860592  4.9004587083445212 20.9023695643031182   T   T   T
  5.1034269840922430  0.0385592939853482 23.5785696475306388   T   T   T
  3.8067168887642411  1.2144912871315492 23.6758653404401400   T   T   T
  3.4008447878186132  4.5904748456200881 23.4049328847699591   T   T   T
  4.8656242605345827  1.3006282454212590 21.3422921459975399   T   T   T
