C2H4 molecule | 6 atoms | 20x20x20 A box
   1.00000000000000
   20.0000000000000000    0.0000000000000000    0.0000000000000000
    0.0000000000000000   20.0000000000000000    0.0000000000000000
    0.0000000000000000    0.0000000000000000   20.0000000000000000
  C  H
  2  4
Cartesian
    9.3484488233976908   10.0169493765132493   10.1458605992245410
   10.6515510664991666    9.9830513882654976    9.8541361303248021
    8.7433667058775626    9.1164069967959520   10.1113438659695980
    8.8611591894758366   10.9459077018910946   10.4249267734766740
   11.1388410031960099    9.0540922981089054    9.5750732265233260
   11.2566332941224374   10.8835938799424881    9.8886518128542331
