C2H4_Ag111
 1.0000000000000000
     8.6762002051589384    0.0000000000000000    0.0000000000000000
     4.3381001025794710    7.5138097859873962    0.0000000000000000
     0.0000000000000000    0.0000000000000000   37.0840878029567094
 Ag  C   H  
  36   2   4
Selective dynamics
Cartesian
  0.0000000000000000  0.0000000000000000 14.9999999999999982   F   F   F
  2.8920667350529787  0.0000000000000000 14.9999999999999982   F   F   F
  5.7841334701059575  0.0000000000000000 14.9999999999999982   F   F   F
  1.4460333675264903  2.5046032619957987 14.9999999999999982   F   F   F
  4.3381001025794692  2.5046032619957987 14.9999999999999982   F   F   F
  7.2301668376324475  2.5046032619957987 14.9999999999999982   F   F   F
  2.8920667350529805  5.0092065239915975 14.9999999999999982   F   F   F
  5.7841334701059592  5.0092065239915975 14.9999999999999982   F   F   F
  8.6762002051589384  5.0092065239915975 14.9999999999999982   F   F   F
  1.4460333675264898  0.8348677539985995 17.3613626009855686   F   F   F
  4.3381001025794683  0.8348677539985995 17.3613626009855686   F   F   F
  7.2301668376324484  0.8348677539985995 17.3613626009855686   F   F   F
  2.8920667350529801  3.3394710159943979 17.3613626009855686   F   F   F
  5.7841334701059592  3.3394710159943979 17.3613626009855686   F   F   F
  8.6762002051589384  3.3394710159943979 17.3613626009855686   F   F   F
  4.3381001025794710  5.8440742779901944 17.3613626009855686   F   F   F
  7.2301668376324493  5.8440742779901944 17.3613626009855686   F   F   F
 10.1222335726854276  5.8440742779901944 17.3613626009855686   F   F   F
  8.6769967530900285  1.6702345437379433 19.7686389892822802   T   T   T
  2.8912652527279143  1.6703239818936400 19.7686344731650614   T   T   T
  5.7842591335664002  1.6693617676767560 19.7662902920561550   T   T   T
 10.1223386449659518  4.1735886153146975 19.7686573804687065   T   T   T
  4.3383927530265831  4.1745770210716913 19.7667831809381305   T   T   T
  7.2297029485863309  4.1745424629115817 19.7665599497611559   T   T   T
 11.5678738402653085  6.6790778925299490 19.7665744127560004   T   T   T
  5.7841773808144321  6.6786314567479499 19.7669416765227659   T   T   T
  8.6764448505094229  6.6789772894899899 19.7665477835363852   T   T   T
 13.0139959240604171  7.5136467519625283 22.1874321804037073   T   T   T
  7.2306639633025949  7.5135587111334416 22.1869110450361227   T   T   T
  5.7834363889637190  0.0000105695154154 22.1896373511481428   T   T   T
  1.4468072278115554  2.5046941377916352 22.1930086150015775   T   T   T
  4.3390826473453528  2.5043873207762162 22.1853476610855225   T   T   T
  7.2297857169223878  2.5043297168793459 22.1873550962055361   T   T   T
  2.8923951484944905  5.0097616828551086 22.1864259245445297   T   T   T
  5.7831401775502043  5.0095226578145411 22.1908675142482146   T   T   T
  8.6761746098326391  5.0096470491143279 22.1873172838176203   T   T   T
 10.3826230922395659  3.3032916226397444 25.8413635866404441   T   T   T
  1.8612162488865742  1.9765635739751934 25.8050273115003250   T   T   T
  9.3989632956364115  3.7544202289528430 25.9757949730985089   T   T   T
  2.5617662172079791  3.9750603859240283 25.7628014994590409   T   T   T
  1.0083822552834549  1.3045498591014530 25.9101840694578414   T   T   T
  2.8483612044845508  1.5251227210079532 25.6960957786607658   T   T   T
