NO_Ag110
 1.0000000000000000
    12.2699999999999996    0.0000000000000000    0.0000000000000000
     0.0000000000000000    5.7841334701059592    0.0000000000000000
     0.0000000000000000    0.0000000000000000   34.3381001025794674
 Ag  N   O  
  24   1   1
Selective dynamics
Cartesian
  2.0449999999999999  1.4460333675264898 15.0000000000000053   F   F   F
  6.1349999999999998  1.4460333675264898 15.0000000000000053   F   F   F
 10.2249999999999979  1.4460333675264898 15.0000000000000053   F   F   F
  2.0449999999999999  4.3381001025794692 15.0000000000000053   F   F   F
  6.1349999999999998  4.3381001025794692 15.0000000000000053   F   F   F
 10.2249999999999979  4.3381001025794692 15.0000000000000053   F   F   F
  0.0000000000000000  0.0000000000000000 16.4460333675264891   F   F   F
  4.0899999999999999  0.0000000000000000 16.4460333675264891   F   F   F
  8.1799999999999997  0.0000000000000000 16.4460333675264891   F   F   F
  0.0000000000000000  2.8920667350529796 16.4460333675264891   F   F   F
  4.0899999999999999  2.8920667350529796 16.4460333675264891   F   F   F
  8.1799999999999997  2.8920667350529796 16.4460333675264891   F   F   F
  2.0509444120475053  1.4457997762872528 17.9711912726819882   T   T   T
  6.1380063242835936  1.4458341095991165 17.9143975018575574   T   T   T
 10.2201202053822211  1.4460653379590600 17.9897963543784805   T   T   T
  2.0652347893875560  4.3380179704531887 17.9901673043149692   T   T   T
  6.1277093978544777  4.3375245972504386 17.9763805484742356   T   T   T
 10.2254236975050858  4.3380364356620920 17.9854842866094842   T   T   T
  0.0047608673829493  5.7833214180982964 19.3538141408174269   T   T   T
  4.0944398023404274  5.7707385377451201 19.3988252367146643   T   T   T
  8.1743578581872107  5.7826763609116929 19.3609697399738856   T   T   T
  0.0049300542226925  2.8929109305079974 19.3537402377892072   T   T   T
  4.0937673433503790  2.9005154111461429 19.3996000212057886   T   T   T
  8.1740117030527042  2.8932941592667181 19.3610637318559000   T   T   T
  4.8689186715846526  1.4343108004444889 21.1558903468840001   T   T   T
  6.0213240395498620  1.4318887190641152 21.4634947085273957   T   T   T
