CH3CH2OH_Au100
 1.0000000000000000
    11.5399826689644573    0.0000000000000000    0.0000000000000000
     0.0000000000000000   11.5399826689644573    0.0000000000000000
     0.0000000000000000    0.0000000000000000   36.1199999999999974
 Au  C   O   H  
  64   2   1   6
Selective dynamics
Cartesian
  1.4424978336205572  1.4424978336205572 14.9999999999999982   F   F   F
  4.3274935008616717  1.4424978336205572 14.9999999999999982   F   F   F
  7.2124891681027856  1.4424978336205572 14.9999999999999982   F   F   F
 10.0974848353439004  1.4424978336205572 14.9999999999999982   F   F   F
  1.4424978336205572  4.3274935008616717 14.9999999999999982   F   F   F
  4.3274935008616717  4.3274935008616717 14.9999999999999982   F   F   F
  7.2124891681027856  4.3274935008616717 14.9999999999999982   F   F   F
 10.0974848353439004  4.3274935008616717 14.9999999999999982   F   F   F
  1.4424978336205572  7.2124891681027856 14.9999999999999982   F   F   F
  4.3274935008616717  7.2124891681027856 14.9999999999999982   F   F   F
  7.2124891681027856  7.2124891681027856 14.9999999999999982   F   F   F
 10.0974848353439004  7.2124891681027856 14.9999999999999982   F   F   F
  1.4424978336205572 10.0974848353439004 14.9999999999999982   F   F   F
  4.3274935008616717 10.0974848353439004 14.9999999999999982   F   F   F
  7.2124891681027856 10.0974848353439004 14.9999999999999982   F   F   F
 10.0974848353439004 10.0974848353439004 14.9999999999999982   F   F   F
  0.0000000000000000  0.0000000000000000 17.0399999999999991   F   F   F
  2.8849956672411143  0.0000000000000000 17.0399999999999991   F   F   F
  5.7699913344822287  0.0000000000000000 17.0399999999999991   F   F   F
  8.6549870017233435  0.0000000000000000 17.0399999999999991   F   F   F
  0.0000000000000000  2.8849956672411143 17.0399999999999991   F   F   F
  2.8849956672411143  2.8849956672411143 17.0399999999999991   F   F   F
  5.7699913344822287  2.8849956672411143 17.0399999999999991   F   F   F
  8.6549870017233435  2.8849956672411143 17.0399999999999991   F   F   F
  0.0000000000000000  5.7699913344822287 17.0399999999999991   F   F   F
  2.8849956672411143  5.7699913344822287 17.0399999999999991   F   F   F
  5.7699913344822287  5.7699913344822287 17.0399999999999991   F   F   F
  8.6549870017233435  5.7699913344822287 17.0399999999999991   F   F   F
  0.0000000000000000  8.6549870017233435 17.0399999999999991   F   F   F
  2.8849956672411143  8.6549870017233435 17.0399999999999991   F   F   F
  5.7699913344822287  8.6549870017233435 17.0399999999999991   F   F   F
  8.6549870017233435  8.6549870017233435 17.0399999999999991   F   F   F
  1.4428968162187916  1.4418730700810944 19.1834542918619917   T   T   T
  4.3297821312422844  1.4450639145195641 19.1882565239851246   T   T   T
  7.2124942042472382  1.4439549789741488 19.1891070364295224   T   T   T
 10.0964297852065901  1.4416481616852708 19.1842407501737391   T   T   T
  1.4432557668279096  4.3280857128841390 19.1837388543281442   T   T   T
  4.3301709755649602  4.3248751270813193 19.1892780778781180   T   T   T
  7.2116753918021681  4.3250581405013602 19.1909499065429152   T   T   T
 10.0962632586286212  4.3284088634207745 19.1848725055033107   T   T   T
  1.4425277699085222  7.2122106227840668 19.1849523227199548   T   T   T
  4.3262288839584944  7.2130349307957520 19.1824782984365534   T   T   T
  7.2135953465018110  7.2135746208235547 19.1815503970346590   T   T   T
 10.0971660428225043  7.2122683353706796 19.1847729529953135   T   T   T
  1.4424527956222948 10.0974399414698652 19.1848297887943176   T   T   T
  4.3264863108602913 10.0977460551153086 19.1834766629003077   T   T   T
  7.2133371922195204 10.0978782435779308 19.1836698008410451   T   T   T
 10.0976977218965569 10.0974603269878536 19.1841641815588879   T   T   T
 11.5393661532353704  0.0002812333132195 21.3085716801930296   T   T   T
  2.8861929105383668  0.0009053713784916 21.3074050161580004   T   T   T
  5.7712034466386264 11.5333411854477621 21.3011529042552787   T   T   T
  8.6522750165063371  0.0012527914214569 21.3068310505223515   T   T   T
  0.0005726515915700  2.8851416022518737 21.3083537230721589   T   T   T
  2.8800236610935848  2.8847976435807108 21.3080731165243478   T   T   T
  5.7615394341225148  2.8780457690794452 21.2992476287936903   T   T   T
  8.6652502734456398  2.8835446057126060 21.2996963103587262   T   T   T
 11.5390783196968361  5.7694128877921225 21.3080570570487922   T   T   T
  2.8885595256434886  5.7681649019753962 21.3091117216891739   T   T   T
  5.7696348171424541  5.7788302775297531 21.3060316433404324   T   T   T
  8.6539525724224777  5.7706088570327427 21.3079598099779837   T   T   T
  0.0000643229392023  8.6549101375277022 21.3079529123617242   T   T   T
  2.8852349770041572  8.6554097172676361 21.3080620194411381   T   T   T
  5.7703944199908888  8.6557675495168134 21.3101259706851351   T   T   T
  8.6545899322431588  8.6561583853099524 21.3086807900104915   T   T   T
  6.3868736114413798  1.3817281469638840 25.4349167834142840   T   T   T
  6.2369104835846487  2.8799369679726339 25.3839787861115234   T   T   T
  6.5664315018062442  3.3274292382903394 24.0502468204020090   T   T   T
  6.4369943891150880  4.2903521961213267 23.9772772275578205   T   T   T
  5.2088171294848520  3.1952367963998904 25.6455078754462207   T   T   T
  6.9124150234406878  3.3755287422189877 26.1055361993464743   T   T   T
  6.1864882521595552  1.0067984172002749 26.4458801980615199   T   T   T
  5.6873838230743701  0.9036965268473418 24.7409922488200458   T   T   T
  7.4027017640106889  1.0890393876577602 25.1507591188018118   T   T   T
