NO_Pt100
 1.0000000000000000
     8.3155757467537992    0.0000000000000000    0.0000000000000000
     0.0000000000000000    8.3155757467537992    0.0000000000000000
     0.0000000000000000    0.0000000000000000   35.8800000000000026
 Pt  N   O  
  36   1   1
Selective dynamics
Cartesian
  1.3859292911256331  1.3859292911256331 15.0000000000000018   F   F   F
  4.1577878733768996  1.3859292911256331 15.0000000000000018   F   F   F
  6.9296464556281654  1.3859292911256331 15.0000000000000018   F   F   F
  1.3859292911256331  4.1577878733768996 15.0000000000000018   F   F   F
  4.1577878733768996  4.1577878733768996 15.0000000000000018   F   F   F
  6.9296464556281654  4.1577878733768996 15.0000000000000018   F   F   F
  1.3859292911256331  6.9296464556281654 15.0000000000000018   F   F   F
  4.1577878733768996  6.9296464556281654 15.0000000000000018   F   F   F
  6.9296464556281654  6.9296464556281654 15.0000000000000018   F   F   F
  0.0000000000000000  0.0000000000000000 16.9600000000000009   F   F   F
  2.7718585822512662  0.0000000000000000 16.9600000000000009   F   F   F
  5.5437171645025325  0.0000000000000000 16.9600000000000009   F   F   F
  0.0000000000000000  2.7718585822512662 16.9600000000000009   F   F   F
  2.7718585822512662  2.7718585822512662 16.9600000000000009   F   F   F
  5.5437171645025325  2.7718585822512662 16.9600000000000009   F   F   F
  0.0000000000000000  5.5437171645025325 16.9600000000000009   F   F   F
  2.7718585822512662  5.5437171645025325 16.9600000000000009   F   F   F
  5.5437171645025325  5.5437171645025325 16.9600000000000009   F   F   F
  1.3975177707715494  1.3994934446747136 18.9778772785298031   T   T   T
  4.1575665960258048  1.3871028880696699 18.9535824051106836   T   T   T
  6.9183119750624025  1.3995080582565249 18.9772522880421093   T   T   T
  1.3972747614829697  4.1315375394312532 18.9771520299073622   T   T   T
  4.1575084161356646  4.1439379961026832 18.9540083168557416   T   T   T
  6.9184554469981174  4.1319723362430762 18.9764199415910007   T   T   T
  1.3770303522041574  6.9235314001123491 18.9358252198825845   T   T   T
  4.1574727198156243  6.9225646730772858 18.9466080792995335   T   T   T
  6.9379363847227884  6.9236702808506152 18.9359180474130504   T   T   T
  8.3151437525188037  8.3144323677306975 20.9418455579133393   T   T   T
  2.7591733230212201  8.2828353961966084 20.9150477029335100   T   T   T
  5.5556712681415625  8.2830907786337669 20.9148750669786843   T   T   T
  0.0016095820715612  2.7633251231609548 21.0001199386302879   T   T   T
  2.7042137350125324  2.7585886145069458 21.0720918022422197   T   T   T
  5.6143260569574363  2.7597823886103616 21.0688253631199878   T   T   T
  8.3150242064195456  5.5259593574983210 20.9427357671861500   T   T   T
  2.7581470244062163  5.5525942636114101 20.9153099373419629   T   T   T
  5.5564489429164139  5.5533435532109428 20.9154264328543533   T   T   T
  4.1607243336230564  2.7570868342281312 22.3935426332480709   T   T   T
  4.1613807242963663  2.7393277597714119 23.5965938386032512   T   T   T
