CH3COOH_Ag110
 1.0000000000000000
    12.2699999999999996    0.0000000000000000    0.0000000000000000
     0.0000000000000000    5.7841334701059592    0.0000000000000000
     0.0000000000000000    0.0000000000000000   34.3381001025794674
 Ag  C   O   H  
  24   2   2   4
Selective dynamics
Cartesian
  2.0449999999999999  1.4460333675264898 15.0000000000000053   F   F   F
  6.1349999999999998  1.4460333675264898 15.0000000000000053   F   F   F
 10.2249999999999979  1.4460333675264898 15.0000000000000053   F   F   F
  2.0449999999999999  4.3381001025794692 15.0000000000000053   F   F   F
  6.1349999999999998  4.3381001025794692 15.0000000000000053   F   F   F
 10.2249999999999979  4.3381001025794692 15.0000000000000053   F   F   F
  0.0000000000000000  0.0000000000000000 16.4460333675264891   F   F   F
  4.0899999999999999  0.0000000000000000 16.4460333675264891   F   F   F
  8.1799999999999997  0.0000000000000000 16.4460333675264891   F   F   F
  0.0000000000000000  2.8920667350529796 16.4460333675264891   F   F   F
  4.0899999999999999  2.8920667350529796 16.4460333675264891   F   F   F
  8.1799999999999997  2.8920667350529796 16.4460333675264891   F   F   F
  2.0483098649528673  1.4406570279159505 17.9940691942055331   T   T   T
  6.1326501916047871  1.4400480094792063 17.9786643621763389   T   T   T
 10.2237802737798624  1.4473981593022509 17.9851942560733704   T   T   T
  2.0477298876639751  4.3438541251739249 17.9784218815811663   T   T   T
  6.1343051951611853  4.3426879236304652 17.9749292306977040   T   T   T
 10.2236101340805767  4.3375584395734590 17.9860103477517015   T   T   T
 12.2659781105865378  5.7826761246320677 19.3534115197013001   T   T   T
  4.0958770459545768  0.0016082702812629 19.4119542286686340   T   T   T
  8.1789980492693939  5.7835447092758345 19.3546710278776288   T   T   T
  0.0029182802415711  2.8939456647410404 19.3564693123232701   T   T   T
  4.0947457577551356  2.8926885674719167 19.3233689874660755   T   T   T
  8.1737190055469924  2.8923041948772523 19.3546882487743694   T   T   T
  2.9871077281303005  0.1950454404265465 24.0454456666550023   T   T   T
  3.0963610367306953  0.4055242041274151 22.5739739671609811   T   T   T
  3.8916502575636422  5.5931785809008785 21.8369986580515878   T   T   T
  2.2195313132121206  1.3224158649164122 22.1244872296035062   T   T   T
  3.0676045072478222  1.1574367242989110 24.5640910073092584   T   T   T
  3.7624823408453048  5.2930528245053292 24.3828495151335574   T   T   T
  1.9966475968136184  5.5649864600255707 24.2735873933365198   T   T   T
  2.3461986204962701  1.4035227518603812 21.1444022734166097   T   T   T
