H2S_Au111
 1.0000000000000000
     8.6549870017233435    0.0000000000000000    0.0000000000000000
     4.3274935008616717    7.4954386129165247    0.0000000000000000
     0.0000000000000000    0.0000000000000000   37.0667672948810178
 Au  S   H  
  36   1   2
Selective dynamics
Cartesian
  0.0000000000000000  0.0000000000000000 15.0000000000000000   F   F   F
  2.8849956672411143  0.0000000000000000 15.0000000000000000   F   F   F
  5.7699913344822287  0.0000000000000000 15.0000000000000000   F   F   F
  1.4424978336205572  2.4984795376388416 15.0000000000000000   F   F   F
  4.3274935008616717  2.4984795376388416 15.0000000000000000   F   F   F
  7.2124891681027856  2.4984795376388416 15.0000000000000000   F   F   F
  2.8849956672411143  4.9969590752776831 15.0000000000000000   F   F   F
  5.7699913344822287  4.9969590752776831 15.0000000000000000   F   F   F
  8.6549870017233435  4.9969590752776831 15.0000000000000000   F   F   F
  1.4424978336205572  0.8328265125462805 17.3555890982936738   F   F   F
  4.3274935008616717  0.8328265125462805 17.3555890982936738   F   F   F
  7.2124891681027865  0.8328265125462805 17.3555890982936738   F   F   F
  2.8849956672411143  3.3313060501851219 17.3555890982936738   F   F   F
  5.7699913344822287  3.3313060501851219 17.3555890982936738   F   F   F
  8.6549870017233435  3.3313060501851219 17.3555890982936738   F   F   F
  4.3274935008616717  5.8297855878239639 17.3555890982936738   F   F   F
  7.2124891681027856  5.8297855878239639 17.3555890982936738   F   F   F
 10.0974848353439004  5.8297855878239639 17.3555890982936738   F   F   F
  8.6549580798643238  1.6656300642701318 19.8059582876555709   T   T   T
  2.8849891478369347  1.6656039853035325 19.8049189376181438   T   T   T
  5.7699839705223228  1.6656526157360330 19.8048292965611168   T   T   T
 10.0973283138233345  4.1641571598687230 19.8046556964885632   T   T   T
  4.3275505432899655  4.1640019057035724 19.8045230971653190   T   T   T
  7.2125899649230822  4.1641983097163813 19.8044869439650277   T   T   T
 11.5402485201744547  6.6627913804471941 19.8056339146825273   T   T   T
  5.7697360334659464  6.6627828981125674 19.8056767835117995   T   T   T
  8.6549894411469577  6.6625215180286395 19.8043407487760454   T   T   T
  4.3273715185898576  7.4935920309080313 22.3174283449327042   T   T   T
  7.2130245238581505  7.4954224425721714 22.3177356275832715   T   T   T
  5.7695715829560479  0.0001066365887803 22.3176983095537302   T   T   T
  1.4436120417520215  2.4997171290778875 22.3167958414630796   T   T   T
  4.3275597845206955  2.4978863086327245 22.3192403371803998   T   T   T
  7.2116036104351355  2.4995451254842234 22.3174048058478895   T   T   T
 11.5396977472885389  4.9967249528469111 22.3183906838845836   T   T   T
  5.7702388098594666  4.9969146193500826 22.3181599912087023   T   T   T
  8.6548344353080395  4.9971752469111532 22.3177907304281646   T   T   T
  8.7604459683620952  1.1313064612786601 25.7762707386365513   T   T   T
  1.1662206625029414  1.4974906688630967 25.0272789579615846   T   T   T
  7.9454992097299426  1.8167569697614019 24.9447108047798096   T   T   T
