CH4_Au111
 1.0000000000000000
     8.6549870017233435    0.0000000000000000    0.0000000000000000
     4.3274935008616717    7.4954386129165247    0.0000000000000000
     0.0000000000000000    0.0000000000000000   37.0667672948810178
 Au  C   H  
  36   1   4
Selective dynamics
Cartesian
  0.0000000000000000  0.0000000000000000 15.0000000000000000   F   F   F
  2.8849956672411143  0.0000000000000000 15.0000000000000000   F   F   F
  5.7699913344822287  0.0000000000000000 15.0000000000000000   F   F   F
  1.4424978336205572  2.4984795376388416 15.0000000000000000   F   F   F
  4.3274935008616717  2.4984795376388416 15.0000000000000000   F   F   F
  7.2124891681027856  2.4984795376388416 15.0000000000000000   F   F   F
  2.8849956672411143  4.9969590752776831 15.0000000000000000   F   F   F
  5.7699913344822287  4.9969590752776831 15.0000000000000000   F   F   F
  8.6549870017233435  4.9969590752776831 15.0000000000000000   F   F   F
  1.4424978336205572  0.8328265125462805 17.3555890982936738   F   F   F
  4.3274935008616717  0.8328265125462805 17.3555890982936738   F   F   F
  7.2124891681027865  0.8328265125462805 17.3555890982936738   F   F   F
  2.8849956672411143  3.3313060501851219 17.3555890982936738   F   F   F
  5.7699913344822287  3.3313060501851219 17.3555890982936738   F   F   F
  8.6549870017233435  3.3313060501851219 17.3555890982936738   F   F   F
  4.3274935008616717  5.8297855878239639 17.3555890982936738   F   F   F
  7.2124891681027856  5.8297855878239639 17.3555890982936738   F   F   F
 10.0974848353439004  5.8297855878239639 17.3555890982936738   F   F   F
  8.6549274578760489  1.6656465161223617 19.8056485936743485   T   T   T
  2.8849865365644285  1.6657694263319991 19.8063746797989957   T   T   T
  5.7700644206421066  1.6656324686213293 19.8056345815840125   T   T   T
 10.0976060548169162  4.1640852258716974 19.8064554540822293   T   T   T
  4.3273754739507222  4.1640735381736018 19.8064560812379362   T   T   T
  7.2124891986859945  4.1642182981800335 19.8052033578625526   T   T   T
 11.5399820956445467  6.6626523147921892 19.8057211727873543   T   T   T
  5.7700821336922727  6.6625659323606854 19.8052102092285267   T   T   T
  8.6549018454655187  6.6625578352275152 19.8052137313038905   T   T   T
  4.3276068183743996  7.4953801579594330 22.3182137444382818   T   T   T
  2.8850340304081552  0.0007209001344180 22.3174685352821740   T   T   T
  5.7698412070338954  0.0000386054757720 22.3181964823747343   T   T   T
  1.4426883670634638  2.4985884113100787 22.3152385434910094   T   T   T
  4.3272708304239256  2.4985683112365917 22.3151784449955244   T   T   T
  7.2125702092359152  2.4986540767503760 22.3182710344781832   T   T   T
  2.8850327367481552  4.9967696255402343 22.3151260958760140   T   T   T
  5.7694633833357001  4.9967327201780405 22.3171214630558268   T   T   T
  8.6554795250155401  4.9965999827587773 22.3171570399576389   T   T   T
  2.8883974133858867  3.4220475779239559 25.8311468296431030   T   T   T
  3.8112933683246082  2.9792084837157460 25.4435042023105424   T   T   T
  2.0291144427601644  2.8399698671188984 25.4838035732507429   T   T   T
  2.7998406858924136  4.4533294954947964 25.4752397429885384   T   T   T
  2.9139320848494021  3.4158039826744546 26.9263552186572959   T   T   T
