SO2_Ir100
 1.0000000000000000
     8.1458701192690270    0.0000000000000000    0.0000000000000000
     0.0000000000000000    8.1458701192690270    0.0000000000000000
     0.0000000000000000    0.0000000000000000   35.7599999999999980
 Ir  S   O  
  36   1   2
Selective dynamics
Cartesian
  1.3576450198781711  1.3576450198781711 15.0000000000000018   F   F   F
  4.0729350596345135  1.3576450198781711 15.0000000000000018   F   F   F
  6.7882250993908553  1.3576450198781711 15.0000000000000018   F   F   F
  1.3576450198781711  4.0729350596345135 15.0000000000000018   F   F   F
  4.0729350596345135  4.0729350596345135 15.0000000000000018   F   F   F
  6.7882250993908553  4.0729350596345135 15.0000000000000018   F   F   F
  1.3576450198781711  6.7882250993908553 15.0000000000000018   F   F   F
  4.0729350596345135  6.7882250993908553 15.0000000000000018   F   F   F
  6.7882250993908553  6.7882250993908553 15.0000000000000018   F   F   F
  0.0000000000000000  0.0000000000000000 16.9200000000000017   F   F   F
  2.7152900397563422  0.0000000000000000 16.9200000000000017   F   F   F
  5.4305800795126844  0.0000000000000000 16.9200000000000017   F   F   F
  0.0000000000000000  2.7152900397563422 16.9200000000000017   F   F   F
  2.7152900397563422  2.7152900397563422 16.9200000000000017   F   F   F
  5.4305800795126844  2.7152900397563422 16.9200000000000017   F   F   F
  0.0000000000000000  5.4305800795126844 16.9200000000000017   F   F   F
  2.7152900397563422  5.4305800795126844 16.9200000000000017   F   F   F
  5.4305800795126844  5.4305800795126844 16.9200000000000017   F   F   F
  1.3744975286701111  1.3656515279075077 18.8882134385628362   T   T   T
  4.0746017171311513  1.3724633260643737 18.8826562796033173   T   T   T
  6.7893327022380676  1.3559879444023701 18.8655457676094187   T   T   T
  1.3653408628159469  4.0761749562731318 18.8798249588623399   T   T   T
  4.0759097227755676  4.0751068806082067 18.8962094423485674   T   T   T
  6.7935240502473180  4.0762485639626673 18.8863247107595242   T   T   T
  1.3755308735471767  6.7811031973904123 18.8910165750345378   T   T   T
  4.0749175620882259  6.7779959549453919 18.8856886603280181   T   T   T
  6.7866298091174686  6.7951904453680410 18.8689052282277743   T   T   T
  8.1394791395321402  0.0050750122972304 20.7303992182805565   T   T   T
  2.7303595875211348  0.0028474092806364 20.7467062064646761   T   T   T
  5.4324646835438690  0.0032246296181752 20.7420015979425933   T   T   T
  0.0046763479945309  2.7181256352556900 20.7246006299341623   T   T   T
  2.6978571025549418  2.6520626462325372 20.7741223902537904   T   T   T
  5.4564736940114775  2.6772312106593676 20.7933608332173918   T   T   T
  0.0018825917255447  5.4358368046123848 20.7282982281785735   T   T   T
  2.6955519444577756  5.4964211411629949 20.7774220916090080   T   T   T
  5.4552873635689076  5.4703944486349361 20.7994584862780876   T   T   T
  4.8092604585171745  4.0687119445376432 22.4125881065253765   T   T   T
  5.1718768558932924  4.0653713834360978 23.8264915105386770   T   T   T
  3.1659300825438574  4.0610864062974912 22.3628108217239827   T   T   T
