HCOOH_Pd110
 1.0000000000000000
    11.6699999999999999    0.0000000000000000    0.0000000000000000
     0.0000000000000000    5.5012907576313399    0.0000000000000000
     0.0000000000000000    0.0000000000000000   34.1259680682235071
 Pd  O   C   H  
  24   2   1   2
Selective dynamics
Cartesian
  1.9449999999999998  1.3753226894078348 14.9999999999999929   F   F   F
  5.8349999999999991  1.3753226894078348 14.9999999999999929   F   F   F
  9.7249999999999996  1.3753226894078348 14.9999999999999929   F   F   F
  1.9449999999999998  4.1259680682235054 14.9999999999999929   F   F   F
  5.8349999999999991  4.1259680682235054 14.9999999999999929   F   F   F
  9.7249999999999996  4.1259680682235054 14.9999999999999929   F   F   F
  0.0000000000000000  0.0000000000000000 16.3753226894078345   F   F   F
  3.8899999999999997  0.0000000000000000 16.3753226894078345   F   F   F
  7.7799999999999994  0.0000000000000000 16.3753226894078345   F   F   F
  0.0000000000000000  2.7506453788156695 16.3753226894078345   F   F   F
  3.8899999999999997  2.7506453788156695 16.3753226894078345   F   F   F
  7.7799999999999994  2.7506453788156695 16.3753226894078345   F   F   F
  1.9400411455071123  1.3688036810284310 17.8006524345881516   T   T   T
  5.8374782056998757  1.3671136150840288 17.8338027056154935   T   T   T
  9.7370040379084095  1.3693758582305007 17.8206333705903432   T   T   T
  1.9284980585647165  4.1232595037230508 17.7914827925467272   T   T   T
  5.8407022527700816  4.1210159103541271 17.8233126507194548   T   T   T
  9.7409730343244973  4.1215523534295677 17.8190721909111858   T   T   T
  0.0134550561854740  5.4951669274229644 19.1805995350266478   T   T   T
  3.8629322736277110  5.4902487718337243 19.1247959797440537   T   T   T
  7.7979043583635468  5.4886045678681894 19.1651880473202390   T   T   T
  0.0165161187643475  2.7422858776553993 19.1732657282345116   T   T   T
  3.8540954383750630  2.7417266953820572 19.1816268960227809   T   T   T
  7.8047026201669034  2.7463526269109262 19.1509475199749524   T   T   T
  5.6494775929297578  1.3091391107446535 21.6372251650972629   T   T   T
  4.0785769661248255  2.9368662670913750 21.3315570350337111   T   T   T
  4.8605872002537893  2.2900175952198514 22.0382475995145199   T   T   T
  5.4924351506791576  1.1695178680057170 20.6480133351785788   T   T   T
  4.9669171762104654  2.4983115970561758 23.1104922581339558   T   T   T
