CO_Au111
 1.0000000000000000
     8.6549870017233435    0.0000000000000000    0.0000000000000000
     4.3274935008616717    7.4954386129165247    0.0000000000000000
     0.0000000000000000    0.0000000000000000   37.0667672948810178
 Au  O   C  
  36   1   1
Selective dynamics
Cartesian
  0.0000000000000000  0.0000000000000000 15.0000000000000000   F   F   F
  2.8849956672411143  0.0000000000000000 15.0000000000000000   F   F   F
  5.7699913344822287  0.0000000000000000 15.0000000000000000   F   F   F
  1.4424978336205572  2.4984795376388416 15.0000000000000000   F   F   F
  4.3274935008616717  2.4984795376388416 15.0000000000000000   F   F   F
  7.2124891681027856  2.4984795376388416 15.0000000000000000   F   F   F
  2.8849956672411143  4.9969590752776831 15.0000000000000000   F   F   F
  5.7699913344822287  4.9969590752776831 15.0000000000000000   F   F   F
  8.6549870017233435  4.9969590752776831 15.0000000000000000   F   F   F
  1.4424978336205572  0.8328265125462805 17.3555890982936738   F   F   F
  4.3274935008616717  0.8328265125462805 17.3555890982936738   F   F   F
  7.2124891681027865  0.8328265125462805 17.3555890982936738   F   F   F
  2.8849956672411143  3.3313060501851219 17.3555890982936738   F   F   F
  5.7699913344822287  3.3313060501851219 17.3555890982936738   F   F   F
  8.6549870017233435  3.3313060501851219 17.3555890982936738   F   F   F
  4.3274935008616717  5.8297855878239639 17.3555890982936738   F   F   F
  7.2124891681027856  5.8297855878239639 17.3555890982936738   F   F   F
 10.0974848353439004  5.8297855878239639 17.3555890982936738   F   F   F
  8.6785287754387213  1.6743316738384446 19.7735841502709455   T   T   T
  2.9097440802000429  1.6773672094785681 19.8141375786809384   T   T   T
  5.7857649958136737  1.6823910508568607 19.8206922688480134   T   T   T
 10.1217276224620516  4.1724058195070013 19.8146121008749603   T   T   T
  4.3401396438186053  4.1685648115407945 19.7930331768610479   T   T   T
  7.2222371988547707  4.1717472570347915 19.8201318593488693   T   T   T
 11.5641958986208486  6.6633272706978577 19.8195970721724066   T   T   T
  5.7874925297297537  6.6610203128969667 19.8189097572175008   T   T   T
  8.6752422662108053  6.6699315270593189 19.7866520468540763   T   T   T
  0.0417415192166716  0.0486558778115327 22.2934856763030460   T   T   T
  2.9239968374331897  0.0306839548480631 22.3198636136709752   T   T   T
  5.8117711656046707  0.0319198406879154 22.3251898431973324   T   T   T
  1.4669276915806455  2.5106212597355708 22.3026735107486580   T   T   T
  4.3707674905357319  2.4541132137005439 22.3604976929853230   T   T   T
  7.2734159549974091  2.5103615582332268 22.2998658108912551   T   T   T
 11.5103771020742780  5.0627486961854506 22.3441760159136287   T   T   T
  5.8767264948705584  5.0591404083899132 22.3386154949350519   T   T   T
  8.6938081847040820  5.0164883119367003 22.3176105092742922   T   T   T
  4.3750819938591450  4.2404522841897601 24.9306846802854487   T   T   T
  4.3686857742847964  4.2238199389236524 23.7508320745863166   T   T   T
