H2S_Au110
 1.0000000000000000
    16.3200000000000003    0.0000000000000000    0.0000000000000000
     0.0000000000000000   11.5399826689644573    0.0000000000000000
     0.0000000000000000    0.0000000000000000   34.3274935008616708
 Au  S   H  
  64   1   2
Selective dynamics
Cartesian
  2.0400000000000000  1.4424978336205572 14.9999999999999964   F   F   F
  6.1200000000000001  1.4424978336205572 14.9999999999999964   F   F   F
 10.1999999999999922  1.4424978336205572 14.9999999999999964   F   F   F
 14.2800000000000011  1.4424978336205572 14.9999999999999964   F   F   F
  2.0400000000000000  4.3274935008616717 14.9999999999999964   F   F   F
  6.1200000000000001  4.3274935008616717 14.9999999999999964   F   F   F
 10.1999999999999922  4.3274935008616717 14.9999999999999964   F   F   F
 14.2800000000000011  4.3274935008616717 14.9999999999999964   F   F   F
  2.0400000000000000  7.2124891681027856 14.9999999999999964   F   F   F
  6.1200000000000001  7.2124891681027856 14.9999999999999964   F   F   F
 10.1999999999999922  7.2124891681027856 14.9999999999999964   F   F   F
 14.2800000000000011  7.2124891681027856 14.9999999999999964   F   F   F
  2.0400000000000000 10.0974848353439004 14.9999999999999964   F   F   F
  6.1200000000000001 10.0974848353439004 14.9999999999999964   F   F   F
 10.1999999999999922 10.0974848353439004 14.9999999999999964   F   F   F
 14.2800000000000011 10.0974848353439004 14.9999999999999964   F   F   F
  0.0000000000000000  0.0000000000000000 16.4424978336205569   F   F   F
  4.0800000000000001  0.0000000000000000 16.4424978336205569   F   F   F
  8.1600000000000001  0.0000000000000000 16.4424978336205569   F   F   F
 12.2400000000000002  0.0000000000000000 16.4424978336205569   F   F   F
  0.0000000000000000  2.8849956672411143 16.4424978336205569   F   F   F
  4.0800000000000001  2.8849956672411143 16.4424978336205569   F   F   F
  8.1600000000000001  2.8849956672411143 16.4424978336205569   F   F   F
 12.2400000000000002  2.8849956672411143 16.4424978336205569   F   F   F
  0.0000000000000000  5.7699913344822287 16.4424978336205569   F   F   F
  4.0800000000000001  5.7699913344822287 16.4424978336205569   F   F   F
  8.1600000000000001  5.7699913344822287 16.4424978336205569   F   F   F
 12.2400000000000002  5.7699913344822287 16.4424978336205569   F   F   F
  0.0000000000000000  8.6549870017233435 16.4424978336205569   F   F   F
  4.0800000000000001  8.6549870017233435 16.4424978336205569   F   F   F
  8.1600000000000001  8.6549870017233435 16.4424978336205569   F   F   F
 12.2400000000000002  8.6549870017233435 16.4424978336205569   F   F   F
  2.0429799894678711  1.4447615574259749 18.0630783379639546   T   T   T
  6.1321093344962705  1.4465788222519713 18.0616094117344943   T   T   T
 10.1818697867538113  1.4475884633130629 18.0760193151324522   T   T   T
 14.2790273251245026  1.4441816690680891 18.0672402606692906   T   T   T
  2.0429156438615821  4.3270338199440372 18.0641486015202375   T   T   T
  6.1382572365516506  4.3231712078173867 18.0572654641349146   T   T   T
 10.1826451972059129  4.3250781262136915 18.0793192522492063   T   T   T
 14.2788107515508234  4.3262694256046990 18.0674012060125548   T   T   T
  2.0460532595673921  7.2071947566112557 18.0694415573504443   T   T   T
  6.1027217712108799  7.2128456393992026 18.0688205749544046   T   T   T
 10.2157488394943403  7.2208087360900635 18.0502026124084836   T   T   T
 14.2808317095105100  7.2117542344831378 18.0657087441842918   T   T   T
  2.0425971805823226 10.0995092696664912 18.0666522040199702   T   T   T
  6.1048439541496409 10.0955589603296438 18.0581010823299728   T   T   T
 10.2104274517843638 10.0977281444072702 18.0529388009394403   T   T   T
 14.2823717611999932 10.0982990131484023 18.0649555817135088   T   T   T
  0.0020047062391815  0.0011123337662292 19.4054829930309189   T   T   T
  4.0885398507197994  0.0115751549957219 19.4097122137003204   T   T   T
  8.1512308724810953 11.5039107664499927 19.3968439042668663   T   T   T
 12.2380083863076106  0.0034915902817484 19.4035437567319420   T   T   T
  0.0025420006544474  2.8851945524303626 19.4045044135886080   T   T   T
  4.0832504947341892  2.8871578889777538 19.4226097687913146   T   T   T
  8.1964702328143986  2.8662833372368883 19.4758330188553792   T   T   T
 12.2316292018640329  2.8860602689602635 19.4055972041153559   T   T   T
  0.0010635798865432  5.7692810817114202 19.4056256087046108   T   T   T
  4.0944537454796199  5.7509059518160743 19.4176189683661775   T   T   T
  8.1606847866046746  5.8185743059574246 19.3848745452946147   T   T   T
 12.2363958836321007  5.7678599098307721 19.4047163166911396   T   T   T
  0.0038792324075555  8.6540694934288425 19.4044094602497417   T   T   T
  4.0687137219994067  8.6554760702119768 19.4172193156637967   T   T   T
  8.1616920489985745  8.6602446750244084 19.4016350834396967   T   T   T
 12.2493427436526083  8.6576660916739065 19.4130116551947083   T   T   T
  6.9649651482328778  3.2349013064885965 21.9790859923325357   T   T   T
  6.8839086034969981  4.5307821853878796 21.5986314940409372   T   T   T
  5.8073176100929205  2.9922499146235269 21.2870614815543178   T   T   T
