CH3_Pt110
 1.0000000000000000
    11.7599999999999998    0.0000000000000000    0.0000000000000000
     0.0000000000000000    5.5437171645025325    0.0000000000000000
     0.0000000000000000    0.0000000000000000   34.1577878733768969
 Pt  C   H  
  24   1   3
Selective dynamics
Cartesian
  1.9600000000000000  1.3859292911256331 14.9999999999999982   F   F   F
  5.8799999999999999  1.3859292911256331 14.9999999999999982   F   F   F
  9.8000000000000007  1.3859292911256331 14.9999999999999982   F   F   F
  1.9600000000000000  4.1577878733768996 14.9999999999999982   F   F   F
  5.8799999999999999  4.1577878733768996 14.9999999999999982   F   F   F
  9.8000000000000007  4.1577878733768996 14.9999999999999982   F   F   F
  0.0000000000000000  0.0000000000000000 16.3859292911256311   F   F   F
  3.9199999999999999  0.0000000000000000 16.3859292911256311   F   F   F
  7.8399999999999999  0.0000000000000000 16.3859292911256311   F   F   F
  0.0000000000000000  2.7718585822512662 16.3859292911256311   F   F   F
  3.9199999999999999  2.7718585822512662 16.3859292911256311   F   F   F
  7.8399999999999999  2.7718585822512662 16.3859292911256311   F   F   F
  1.9634225585797176  1.3970864578271798 17.8932231829425277   T   T   T
  5.8771337225217941  1.3982928460839301 17.8933238234369654   T   T   T
  9.7997182486407368  1.3862064558225053 17.9019994047908355   T   T   T
  1.9641461515799821  4.1600281772086642 17.8964664179082895   T   T   T
  5.8763295239402069  4.1593300834958651 17.8965838764957894   T   T   T
  9.7997568500618879  4.1624163222384212 17.9053184742106879   T   T   T
  0.0120802835737387  0.0040520322544777 19.1907757596752404   T   T   T
  3.9224845359676417  0.0187562448793236 19.1631701230046190   T   T   T
  7.8276469888164018  0.0045763854743071 19.1914120842644884   T   T   T
  0.0056335547759886  2.7733956463421414 19.1824897464384350   T   T   T
  3.9154095693411346  2.7888805030757755 19.2591156357318347   T   T   T
  7.8337552478296733  2.7738900774296598 19.1836142904971041   T   T   T
  3.8838027648435047  2.9585357719930392 21.2926973414975897   T   T   T
  4.8306691270507525  3.4306240315557512 21.5877225433605560   T   T   T
  3.0255127674314539  3.5867447658354497 21.5664693952604054   T   T   T
  3.7897901319469955  1.9475371089819682 21.7082116571780119   T   T   T
