CH3OCH3_Pd110
 1.0000000000000000
    11.6699999999999999    0.0000000000000000    0.0000000000000000
     0.0000000000000000    5.5012907576313399    0.0000000000000000
     0.0000000000000000    0.0000000000000000   34.1259680682235071
 Pd  C   O   H  
  24   2   1   6
Selective dynamics
Cartesian
  1.9449999999999998  1.3753226894078348 14.9999999999999929   F   F   F
  5.8349999999999991  1.3753226894078348 14.9999999999999929   F   F   F
  9.7249999999999996  1.3753226894078348 14.9999999999999929   F   F   F
  1.9449999999999998  4.1259680682235054 14.9999999999999929   F   F   F
  5.8349999999999991  4.1259680682235054 14.9999999999999929   F   F   F
  9.7249999999999996  4.1259680682235054 14.9999999999999929   F   F   F
  0.0000000000000000  0.0000000000000000 16.3753226894078345   F   F   F
  3.8899999999999997  0.0000000000000000 16.3753226894078345   F   F   F
  7.7799999999999994  0.0000000000000000 16.3753226894078345   F   F   F
  0.0000000000000000  2.7506453788156695 16.3753226894078345   F   F   F
  3.8899999999999997  2.7506453788156695 16.3753226894078345   F   F   F
  7.7799999999999994  2.7506453788156695 16.3753226894078345   F   F   F
  1.9438665143094198  1.3758092647744145 17.8205566326264524   T   T   T
  5.8258716716129024  1.3769457954838038 17.8112543112643991   T   T   T
  9.7329574928216047  1.3753970589306228 17.8133959712479530   T   T   T
  1.9422139152608560  4.1263865678286953 17.8203944925053150   T   T   T
  5.8229744741292748  4.1228265530456341 17.8141152204862649   T   T   T
  9.7396015463154981  4.1241531187409022 17.8074819958090309   T   T   T
  0.0003938703063040  0.0006825077330435 19.1660522811789491   T   T   T
  3.8857796292783804  0.0029768947155527 19.1678654928403134   T   T   T
  7.7890102473349758  5.4995517124409234 19.1544861611915955   T   T   T
  0.0006925590430298  2.7497562325822495 19.1745472771867362   T   T   T
  3.8816700504045043  2.7549397559885986 19.1678250567674517   T   T   T
  7.7885339423478444  2.7570067197159731 19.1241643823885674   T   T   T
  6.4186980863629239  0.8811811138158461 21.8028448912360453   T   T   T
  8.7523345362578215  0.3582606783989313 22.0238565039472611   T   T   T
  7.4991694009279950  0.0242581572919954 21.3972074649705348   T   T   T
  6.6530664018197294  1.9420584868733368 21.5947735573744772   T   T   T
  5.5311968712307671  0.5783434196525675 21.2275585565300631   T   T   T
  6.2222323895998279  0.7638767344507378 22.8794846260481712   T   T   T
  9.0151118558524885  1.4143809616521923 21.8408827973766471   T   T   T
  9.5186768180847103  5.2055321309643974 21.5938849660871668   T   T   T
  8.6880564153871838  0.1824320566086969 23.1089268143416575   T   T   T
