CH3OH_Pt111
 1.0000000000000000
     8.3155757467537992    0.0000000000000000    0.0000000000000000
     4.1577878733768987    7.2014998437825444    0.0000000000000000
     0.0000000000000000    0.0000000000000000   36.7896391656699961
 Pt  C   O   H  
  36   1   1   4
Selective dynamics
Cartesian
  0.0000000000000000  0.0000000000000000 15.0000000000000053   F   F   F
  2.7718585822512662  0.0000000000000000 15.0000000000000053   F   F   F
  5.5437171645025325  0.0000000000000000 15.0000000000000053   F   F   F
  1.3859292911256329  2.4004999479275146 15.0000000000000053   F   F   F
  4.1577878733768996  2.4004999479275146 15.0000000000000053   F   F   F
  6.9296464556281654  2.4004999479275146 15.0000000000000053   F   F   F
  2.7718585822512658  4.8009998958550293 15.0000000000000053   F   F   F
  5.5437171645025316  4.8009998958550293 15.0000000000000053   F   F   F
  8.3155757467537992  4.8009998958550293 15.0000000000000053   F   F   F
  1.3859292911256325  0.8001666493091718 17.2632130552233356   F   F   F
  4.1577878733768987  0.8001666493091718 17.2632130552233356   F   F   F
  6.9296464556281663  0.8001666493091718 17.2632130552233356   F   F   F
  2.7718585822512658  3.2006665972366872 17.2632130552233356   F   F   F
  5.5437171645025298  3.2006665972366872 17.2632130552233356   F   F   F
  8.3155757467537992  3.2006665972366872 17.2632130552233356   F   F   F
  4.1577878733768987  5.6011665451642010 17.2632130552233356   F   F   F
  6.9296464556281645  5.6011665451642010 17.2632130552233356   F   F   F
  9.7015050378794321  5.6011665451642010 17.2632130552233356   F   F   F
  8.3164157949077335  1.5964590292484078 19.5476016035074593   T   T   T
  2.7767420917553474  1.6002580027130213 19.5764009491436219   T   T   T
  5.5410043304402290  1.6010645146681934 19.5741612291414420   T   T   T
  9.6993169314586005  4.0018754562410574 19.5554732177286468   T   T   T
  4.1565085461440896  3.9857930308124616 19.5832422695870783   T   T   T
  6.9298538987108236  4.0013385708694731 19.5557962091942414   T   T   T
 11.0911087015270553  6.4009049077290676 19.5459777993160202   T   T   T
  5.5406165509486751  6.3980856754189706 19.5505315169131961   T   T   T
  8.3152856500131609  6.4025901765011435 19.5576305939067296   T   T   T
  4.1598308756220241  7.2012969039221275 21.9159302587388076   T   T   T
  6.9202001046151072  7.1882021067458890 21.9070275676838015   T   T   T
  9.7087967769637089  7.1845473189610560 21.8986761681960473   T   T   T
  9.6893418669856128  2.4003634277553849 21.8894997758784164   T   T   T
  4.1631796688860101  2.4112545410845421 21.9222009778695863   T   T   T
  6.9466561899953829  2.4000602707500636 21.8966270853830878   T   T   T
 11.0795084109609725  4.8153864271031130 21.8912986342044498   T   T   T
  5.5515046899282252  4.8124645456736044 21.9071172397562535   T   T   T
  8.3148623867041316  4.8018540215392314 21.9170212119934504   T   T   T
  3.3572914301401098  3.1373439785470656 24.9374599189227979   T   T   T
  4.1783970490813207  2.1911165730631907 24.2132328701801605   T   T   T
  3.7634776661075953  4.1338317035328958 24.7387330040777051   T   T   T
  3.7613989072922691  1.3013116054872584 24.2405037326722628   T   T   T
  2.3103854279330585  3.0862240263977583 24.6023643282267912   T   T   T
  3.4200422658641636  2.9239530301021435 26.0115261319245619   T   T   T
