CH3OH_Cu100
 1.0000000000000000
    10.2106219203337467    0.0000000000000000    0.0000000000000000
     0.0000000000000000   10.2106219203337467    0.0000000000000000
     0.0000000000000000    0.0000000000000000   35.4149999999999991
 Cu  C   O   H  
  64   1   1   4
Selective dynamics
Cartesian
  1.2763277400417183  1.2763277400417183 15.0000000000000000   F   F   F
  3.8289832201251550  1.2763277400417183 15.0000000000000000   F   F   F
  6.3816387002085921  1.2763277400417183 15.0000000000000000   F   F   F
  8.9342941802920279  1.2763277400417183 15.0000000000000000   F   F   F
  1.2763277400417183  3.8289832201251550 15.0000000000000000   F   F   F
  3.8289832201251550  3.8289832201251550 15.0000000000000000   F   F   F
  6.3816387002085921  3.8289832201251550 15.0000000000000000   F   F   F
  8.9342941802920279  3.8289832201251550 15.0000000000000000   F   F   F
  1.2763277400417183  6.3816387002085921 15.0000000000000000   F   F   F
  3.8289832201251550  6.3816387002085921 15.0000000000000000   F   F   F
  6.3816387002085921  6.3816387002085921 15.0000000000000000   F   F   F
  8.9342941802920279  6.3816387002085921 15.0000000000000000   F   F   F
  1.2763277400417183  8.9342941802920279 15.0000000000000000   F   F   F
  3.8289832201251550  8.9342941802920279 15.0000000000000000   F   F   F
  6.3816387002085921  8.9342941802920279 15.0000000000000000   F   F   F
  8.9342941802920279  8.9342941802920279 15.0000000000000000   F   F   F
  0.0000000000000000  0.0000000000000000 16.8049999999999997   F   F   F
  2.5526554800834367  0.0000000000000000 16.8049999999999997   F   F   F
  5.1053109601668734  0.0000000000000000 16.8049999999999997   F   F   F
  7.6579664402503100  0.0000000000000000 16.8049999999999997   F   F   F
  0.0000000000000000  2.5526554800834367 16.8049999999999997   F   F   F
  2.5526554800834367  2.5526554800834367 16.8049999999999997   F   F   F
  5.1053109601668734  2.5526554800834367 16.8049999999999997   F   F   F
  7.6579664402503100  2.5526554800834367 16.8049999999999997   F   F   F
  0.0000000000000000  5.1053109601668734 16.8049999999999997   F   F   F
  2.5526554800834367  5.1053109601668734 16.8049999999999997   F   F   F
  5.1053109601668734  5.1053109601668734 16.8049999999999997   F   F   F
  7.6579664402503100  5.1053109601668734 16.8049999999999997   F   F   F
  0.0000000000000000  7.6579664402503100 16.8049999999999997   F   F   F
  2.5526554800834367  7.6579664402503100 16.8049999999999997   F   F   F
  5.1053109601668734  7.6579664402503100 16.8049999999999997   F   F   F
  7.6579664402503100  7.6579664402503100 16.8049999999999997   F   F   F
  1.2740646586430111  1.2745526135053511 18.6345401004655251   T   T   T
  3.8225340742013225  1.2710409292684399 18.6248723102184321   T   T   T
  6.3892239925132577  1.2721297541029697 18.6258060195774675   T   T   T
  8.9362065140741933  1.2753054841738891 18.6363940695472685   T   T   T
  1.2749146116402366  3.8242104092749880 18.6296476478802226   T   T   T
  3.8392844352408204  3.8421863058117349 18.6520380313949694   T   T   T
  6.3666687342638211  3.8430259935869917 18.6539390767921347   T   T   T
  8.9342098310627822  3.8252960861036862 18.6309130345663760   T   T   T
  1.2754927647590981  6.3864867932934715 18.6297299758170745   T   T   T
  3.8408889503764785  6.3663852578288038 18.6555005610833291   T   T   T
  6.3641556098839258  6.3642625673307158 18.6583447861026883   T   T   T
  8.9352238970719338  6.3857792872363852 18.6283081436406484   T   T   T
  1.2742922237088468  8.9368846714474106 18.6347577710346179   T   T   T
  3.8253557304505041  8.9350573126037300 18.6296320516403782   T   T   T
  6.3868997006066524  8.9364010668945895 18.6266858564359126   T   T   T
  8.9351429550172199  8.9350491164998793 18.6364719718074099   T   T   T
  0.0007385288883836  0.0004681722747879 20.4157140521312854   T   T   T
  2.5542561214663402  0.0025729530041922 20.4165111791394658   T   T   T
  5.1049382287965157 10.2075513420585420 20.4157370728536378   T   T   T
  7.6573979509064793 10.2088855689561342 20.4157685824232153   T   T   T
  0.0026784050994293  2.5540963332953277 20.4161733924682594   T   T   T
  2.5540769325477468  2.5494068621885337 20.4088675056731645   T   T   T
  5.1067703079562268  2.5134820507183564 20.3803457784353519   T   T   T
  7.6584322927624324  2.5515769866293949 20.4107623838215275   T   T   T
 10.2090332231487508  5.1046314934877763 20.4130498913906990   T   T   T
  2.5180764740091179  5.1067873506253907 20.3957962139708151   T   T   T
  5.1142898545910631  5.1070074418476850 20.5398258939995557   T   T   T
  7.6849038315537577  5.1072735666355200 20.3990662114642056   T   T   T
 10.2093938074284996  7.6568810572197181 20.4149976101250843   T   T   T
  2.5507771117838853  7.6640025953607305 20.4070797601963214   T   T   T
  5.1077178999604786  7.6860018194005288 20.3924689988878747   T   T   T
  7.6565832993450362  7.6567638928605559 20.4097651886095690   T   T   T
  5.3716366289588882  5.4048792991919443 23.8647754412899324   T   T   T
  4.7230121798326747  4.8680890649895447 22.6785494797782974   T   T   T
  5.6958155470943224  6.4186755572020164 23.6248058375351420   T   T   T
  4.4258579117190546  3.9494868006004280 22.8327934473025032   T   T   T
  4.6608869750476920  5.4490144990185154 24.6987657422013420   T   T   T
  6.2435290768547107  4.8068653258376148 24.1561803745222434   T   T   T
