CO_Cu100
 1.0000000000000000
    10.2106219203337467    0.0000000000000000    0.0000000000000000
     0.0000000000000000   10.2106219203337467    0.0000000000000000
     0.0000000000000000    0.0000000000000000   35.4149999999999991
 Cu  O   C  
  64   1   1
Selective dynamics
Cartesian
  1.2763277400417183  1.2763277400417183 15.0000000000000000   F   F   F
  3.8289832201251550  1.2763277400417183 15.0000000000000000   F   F   F
  6.3816387002085921  1.2763277400417183 15.0000000000000000   F   F   F
  8.9342941802920279  1.2763277400417183 15.0000000000000000   F   F   F
  1.2763277400417183  3.8289832201251550 15.0000000000000000   F   F   F
  3.8289832201251550  3.8289832201251550 15.0000000000000000   F   F   F
  6.3816387002085921  3.8289832201251550 15.0000000000000000   F   F   F
  8.9342941802920279  3.8289832201251550 15.0000000000000000   F   F   F
  1.2763277400417183  6.3816387002085921 15.0000000000000000   F   F   F
  3.8289832201251550  6.3816387002085921 15.0000000000000000   F   F   F
  6.3816387002085921  6.3816387002085921 15.0000000000000000   F   F   F
  8.9342941802920279  6.3816387002085921 15.0000000000000000   F   F   F
  1.2763277400417183  8.9342941802920279 15.0000000000000000   F   F   F
  3.8289832201251550  8.9342941802920279 15.0000000000000000   F   F   F
  6.3816387002085921  8.9342941802920279 15.0000000000000000   F   F   F
  8.9342941802920279  8.9342941802920279 15.0000000000000000   F   F   F
  0.0000000000000000  0.0000000000000000 16.8049999999999997   F   F   F
  2.5526554800834367  0.0000000000000000 16.8049999999999997   F   F   F
  5.1053109601668734  0.0000000000000000 16.8049999999999997   F   F   F
  7.6579664402503100  0.0000000000000000 16.8049999999999997   F   F   F
  0.0000000000000000  2.5526554800834367 16.8049999999999997   F   F   F
  2.5526554800834367  2.5526554800834367 16.8049999999999997   F   F   F
  5.1053109601668734  2.5526554800834367 16.8049999999999997   F   F   F
  7.6579664402503100  2.5526554800834367 16.8049999999999997   F   F   F
  0.0000000000000000  5.1053109601668734 16.8049999999999997   F   F   F
  2.5526554800834367  5.1053109601668734 16.8049999999999997   F   F   F
  5.1053109601668734  5.1053109601668734 16.8049999999999997   F   F   F
  7.6579664402503100  5.1053109601668734 16.8049999999999997   F   F   F
  0.0000000000000000  7.6579664402503100 16.8049999999999997   F   F   F
  2.5526554800834367  7.6579664402503100 16.8049999999999997   F   F   F
  5.1053109601668734  7.6579664402503100 16.8049999999999997   F   F   F
  7.6579664402503100  7.6579664402503100 16.8049999999999997   F   F   F
  1.2750893698295478  1.2707239947589966 18.6321424314700401   T   T   T
  3.8406643034430266  1.2865800518889818 18.6554916095234127   T   T   T
  6.3699683030786591  1.2840522954884452 18.6507429480796496   T   T   T
  8.9355251481200533  1.2697873351113247 18.6310520308386280   T   T   T
  1.2721705022564971  3.8299952760187037 18.6330484454743903   T   T   T
  3.8269287992898149  3.8245469279125035 18.6247224751319109   T   T   T
  6.3848687740487415  3.8252244660827763 18.6113319242718518   T   T   T
  8.9328018588304392  3.8295674758610549 18.6353829627412040   T   T   T
  1.2796569399440196  6.3872532526850669 18.6330596044123240   T   T   T
  3.8435082136761567  6.3598641717338573 18.6625424811663763   T   T   T
  6.3704352222058720  6.3623805849403601 18.6570696523439672   T   T   T
  8.9346983625981444  6.3888594383490878 18.6306227590300075   T   T   T
  1.2786092426268811  8.9340927590926054 18.6414533702646743   T   T   T
  3.8304241385267011  8.9261795397535035 18.6367548814772945   T   T   T
  6.3802603310591026  8.9266259448402874 18.6366209721132492   T   T   T
  8.9335837292782188  8.9345137340689575 18.6404536613346217   T   T   T
  0.0005837705035735  0.0009768608142134 20.4195729924155707   T   T   T
  2.5585108288831813  0.0009960155448637 20.4173165431880967   T   T   T
  5.1068506292816922 10.1955343603367776 20.4234167370475816   T   T   T
  7.6538831791682842 10.2101209114313374 20.4165711628912057   T   T   T
 10.2055714453455550  2.5531114504474060 20.4179273956710858   T   T   T
  2.5274864524523304  2.5479687617443032 20.4060121357390933   T   T   T
  5.1044527378139106  2.5443486547967233 20.5019668247571367   T   T   T
  7.6788339054087205  2.5432226274995138 20.4039582454794441   T   T   T
 10.2105822382068698  5.1052154726793164 20.4174789991227819   T   T   T
  2.5298844900805437  5.1089091297311864 20.4126218247062354   T   T   T
  5.1088885507930231  5.0776428116270065 20.5112998325716802   T   T   T
  7.6858953688269471  5.1156503678928882 20.4086412683973712   T   T   T
  0.0003807050842453  7.6562118048707273 20.4190648045040071   T   T   T
  2.5577024874320271  7.6579433608914851 20.4198806213214290   T   T   T
  5.1071835011502618  7.6416029311847371 20.4344679576745385   T   T   T
  7.6549005514158619  7.6600882916566020 20.4185777257772934   T   T   T
  5.5202871487506018  3.7789490639944603 23.1608276103192097   T   T   T
  5.3727839189030320  3.8020836215291154 21.9962166697387538   T   T   T
