C2H6_Ag100
 1.0000000000000000
    11.5682669402119185    0.0000000000000000    0.0000000000000000
     0.0000000000000000   11.5682669402119185    0.0000000000000000
     0.0000000000000000    0.0000000000000000   36.1349999999999980
 Ag  C   H  
  64   2   6
Selective dynamics
Cartesian
  1.4460333675264898  1.4460333675264898 15.0000000000000000   F   F   F
  4.3381001025794692  1.4460333675264898 15.0000000000000000   F   F   F
  7.2301668376324493  1.4460333675264898 15.0000000000000000   F   F   F
 10.1222335726854293  1.4460333675264898 15.0000000000000000   F   F   F
  1.4460333675264898  4.3381001025794692 15.0000000000000000   F   F   F
  4.3381001025794692  4.3381001025794692 15.0000000000000000   F   F   F
  7.2301668376324493  4.3381001025794692 15.0000000000000000   F   F   F
 10.1222335726854293  4.3381001025794692 15.0000000000000000   F   F   F
  1.4460333675264898  7.2301668376324493 15.0000000000000000   F   F   F
  4.3381001025794692  7.2301668376324493 15.0000000000000000   F   F   F
  7.2301668376324493  7.2301668376324493 15.0000000000000000   F   F   F
 10.1222335726854293  7.2301668376324493 15.0000000000000000   F   F   F
  1.4460333675264898 10.1222335726854293 15.0000000000000000   F   F   F
  4.3381001025794692 10.1222335726854293 15.0000000000000000   F   F   F
  7.2301668376324493 10.1222335726854293 15.0000000000000000   F   F   F
 10.1222335726854293 10.1222335726854293 15.0000000000000000   F   F   F
  0.0000000000000000  0.0000000000000000 17.0450000000000017   F   F   F
  2.8920667350529796  0.0000000000000000 17.0450000000000017   F   F   F
  5.7841334701059592  0.0000000000000000 17.0450000000000017   F   F   F
  8.6762002051589384  0.0000000000000000 17.0450000000000017   F   F   F
  0.0000000000000000  2.8920667350529796 17.0450000000000017   F   F   F
  2.8920667350529796  2.8920667350529796 17.0450000000000017   F   F   F
  5.7841334701059592  2.8920667350529796 17.0450000000000017   F   F   F
  8.6762002051589384  2.8920667350529796 17.0450000000000017   F   F   F
  0.0000000000000000  5.7841334701059592 17.0450000000000017   F   F   F
  2.8920667350529796  5.7841334701059592 17.0450000000000017   F   F   F
  5.7841334701059592  5.7841334701059592 17.0450000000000017   F   F   F
  8.6762002051589384  5.7841334701059592 17.0450000000000017   F   F   F
  0.0000000000000000  8.6762002051589384 17.0450000000000017   F   F   F
  2.8920667350529796  8.6762002051589384 17.0450000000000017   F   F   F
  5.7841334701059592  8.6762002051589384 17.0450000000000017   F   F   F
  8.6762002051589384  8.6762002051589384 17.0450000000000017   F   F   F
  1.4460040225070647  1.4459313798152313 19.1703629506893591   T   T   T
  4.3381366983628773  1.4459512789663393 19.1708660050187270   T   T   T
  7.2303091973789018  1.4460964493062420 19.1713188444665903   T   T   T
 10.1220538868548928  1.4460877773402836 19.1710422228122255   T   T   T
  1.4459793777948489  4.3381882059782404 19.1703921384254876   T   T   T
  4.3381176651633941  4.3382388452864333 19.1706493715577864   T   T   T
  7.2301979407414487  4.3380947480437833 19.1712445628544330   T   T   T
 10.1220689799881889  4.3380370271530078 19.1711220623319285   T   T   T
  1.4460263743676309  7.2301256067735578 19.1704786274857497   T   T   T
  4.3380852503218481  7.2301093554193958 19.1704285519946787   T   T   T
  7.2300866864556657  7.2301204155053682 19.1704134115919764   T   T   T
 10.1223439463008145  7.2301425376247428 19.1704301011313731   T   T   T
  1.4460174674464510 10.1222853304127138 19.1704785586843123   T   T   T
  4.3380865015437386 10.1222842235959121 19.1704612180279170   T   T   T
  7.2301298005173651 10.1223118513100996 19.1704997549641476   T   T   T
 10.1223143711133030 10.1222854920694907 19.1704360399556215   T   T   T
 11.5679810451402147  0.0003676179012611 21.2504007252606506   T   T   T
  2.8921825904339591  0.0002395018020849 21.2503570219512063   T   T   T
  5.7846248790720436  0.0000441904825862 21.2503471969884750   T   T   T
  8.6759601918536191 11.5680075771768713 21.2495636623088586   T   T   T
  0.0002176746277686  2.8920612042419007 21.2505283519332302   T   T   T
  2.8919641079567762  2.8920865391609163 21.2503875862841909   T   T   T
  5.7841076532011391  2.8921976501239701 21.2492652518756877   T   T   T
  8.6762283198631600  2.8919356805169905 21.2502240098002169   T   T   T
 11.5679210197340172  5.7837852098753899 21.2504710140499533   T   T   T
  2.8922448460811423  5.7838883558473961 21.2503997049042503   T   T   T
  5.7846156666224573  5.7837198076970955 21.2508395710932838   T   T   T
  8.6758506915074545  5.7841630679343794 21.2495594937996444   T   T   T
 11.5682376861315550  8.6762062216240512 21.2504465839669123   T   T   T
  2.8920638374425103  8.6761626621567647 21.2504688890897384   T   T   T
  5.7842565246072182  8.6763331538603126 21.2503555697882298   T   T   T
  8.6761075746078316  8.6761723490983460 21.2505891452935387   T   T   T
  6.8728098461209752  2.5744351376903092 25.1310634276758016   T   T   T
  8.3689670661925373  2.8379933089547031 24.9539853556628586   T   T   T
  6.3595597520686358  3.4363757099718635 25.5817143631773973   T   T   T
  6.3798597921232858  2.3669189756279581 24.1673596021423407   T   T   T
  6.6893191428100760  1.7078959191451606 25.7836900643862421   T   T   T
  8.8810871763391006  1.9838633592909265 24.4823777250886145   T   T   T
  8.8651695408104221  3.0196297530002831 25.9210257507798048   T   T   T
  8.5554204680461190  3.7232381942864823 24.3240581524968107   T   T   T
