H2CO_Ir110
 1.0000000000000000
    11.5199999999999996    0.0000000000000000    0.0000000000000000
     0.0000000000000000    5.4305800795126853    0.0000000000000000
     0.0000000000000000    0.0000000000000000   34.0729350596345171
 Ir  C   O   H  
  24   1   1   2
Selective dynamics
Cartesian
  1.9199999999999999  1.3576450198781711 15.0000000000000018   F   F   F
  5.7599999999999989  1.3576450198781711 15.0000000000000018   F   F   F
  9.5999999999999996  1.3576450198781711 15.0000000000000018   F   F   F
  1.9199999999999999  4.0729350596345135 15.0000000000000018   F   F   F
  5.7599999999999989  4.0729350596345135 15.0000000000000018   F   F   F
  9.5999999999999996  4.0729350596345135 15.0000000000000018   F   F   F
  0.0000000000000000  0.0000000000000000 16.3576450198781735   F   F   F
  3.8399999999999999  0.0000000000000000 16.3576450198781735   F   F   F
  7.6799999999999997  0.0000000000000000 16.3576450198781735   F   F   F
  0.0000000000000000  2.7152900397563422 16.3576450198781735   F   F   F
  3.8399999999999999  2.7152900397563422 16.3576450198781735   F   F   F
  7.6799999999999997  2.7152900397563422 16.3576450198781735   F   F   F
  1.9213658663902924  1.3672849587378151 17.7772607095853949   T   T   T
  5.7620970543832311  1.3662262134588063 17.7771482383973414   T   T   T
  9.6015223087070680  1.3582993674839183 17.7690488100013297   T   T   T
  1.9270262310720128  4.0837589680376096 17.7607478943964487   T   T   T
  5.7565546277834754  4.0828219320052650 17.7585672377038009   T   T   T
  9.6016204676082886  4.0765946980523031 17.7798074309356231   T   T   T
  0.0093121708779694  0.0017736001768922 19.0040958852866346   T   T   T
  3.8463503259929350  0.0366680399325812 19.0371387449844818   T   T   T
  7.6744789549819838  0.0013680827280961 19.0040035050782627   T   T   T
  0.0067745123461779  2.7144792536799773 19.0038373688736293   T   T   T
  3.8421771508883515  2.6959388443467156 19.0105512475930354   T   T   T
  7.6771260099324197  2.7139977932925130 19.0030128360315835   T   T   T
  3.8716122586272923  4.5992546213912044 20.9396150872076170   T   T   T
  3.8899547434841901  3.2295395974409211 20.9049557884115416   T   T   T
  4.7655723003952710  5.0209661075606800 21.4431574044974447   T   T   T
  2.9412116115171454  5.0000759662722771 21.3952334325083342   T   T   T
