C2H4_Ag100
 1.0000000000000000
     8.6762002051589384    0.0000000000000000    0.0000000000000000
     0.0000000000000000    8.6762002051589384    0.0000000000000000
     0.0000000000000000    0.0000000000000000   36.1349999999999980
 Ag  C   H  
  36   2   4
Selective dynamics
Cartesian
  1.4460333675264894  1.4460333675264894 15.0000000000000000   F   F   F
  4.3381001025794692  1.4460333675264894 15.0000000000000000   F   F   F
  7.2301668376324475  1.4460333675264894 15.0000000000000000   F   F   F
  1.4460333675264894  4.3381001025794692 15.0000000000000000   F   F   F
  4.3381001025794692  4.3381001025794692 15.0000000000000000   F   F   F
  7.2301668376324475  4.3381001025794692 15.0000000000000000   F   F   F
  1.4460333675264894  7.2301668376324475 15.0000000000000000   F   F   F
  4.3381001025794692  7.2301668376324475 15.0000000000000000   F   F   F
  7.2301668376324475  7.2301668376324475 15.0000000000000000   F   F   F
  0.0000000000000000  0.0000000000000000 17.0450000000000017   F   F   F
  2.8920667350529787  0.0000000000000000 17.0450000000000017   F   F   F
  5.7841334701059575  0.0000000000000000 17.0450000000000017   F   F   F
  0.0000000000000000  2.8920667350529787 17.0450000000000017   F   F   F
  2.8920667350529787  2.8920667350529787 17.0450000000000017   F   F   F
  5.7841334701059575  2.8920667350529787 17.0450000000000017   F   F   F
  0.0000000000000000  5.7841334701059575 17.0450000000000017   F   F   F
  2.8920667350529787  5.7841334701059575 17.0450000000000017   F   F   F
  5.7841334701059575  5.7841334701059575 17.0450000000000017   F   F   F
  1.4461265034549040  1.4490583827527217 19.1728888705026357   T   T   T
  4.3368174199685754  1.4467913027727690 19.1689127159545194   T   T   T
  7.2313845368589877  1.4467832549195003 19.1690066768080420   T   T   T
  1.4461118145499079  4.3350720400284581 19.1729042578367448   T   T   T
  4.3368242556645491  4.3373266828036341 19.1689303578693568   T   T   T
  7.2313672098050263  4.3373411761935410 19.1689894609248448   T   T   T
  1.4460112906196152  7.2301539302516851 19.1639028395000750   T   T   T
  4.3400362653463125  7.2301799147544585 19.1665240904019640   T   T   T
  7.2282557800699516  7.2301955645619449 19.1665865407111831   T   T   T
  8.6760456212709745  8.6732830482015704 21.2470211427836198   T   T   T
  2.8923882326970478  8.6730641629032963 21.2470225509427841   T   T   T
  5.7841974038942459  0.0017944920596290 21.2518165713794005   T   T   T
  8.6731949491043761  2.8920663645579512 21.2555326785070129   T   T   T
  2.8955979326983954  2.8921037289034408 21.2582616515704004   T   T   T
  5.7837990570152087  2.8921187777527835 21.2514310885706976   T   T   T
  8.6759298354882013  5.7873145974323714 21.2467936895700973   T   T   T
  2.8924803769879048  5.7875290837273932 21.2468278369227868   T   T   T
  5.7841719260815916  5.7823637692855536 21.2517346272570045   T   T   T
  0.7980123488203632  2.9121320535569040 24.3147953023875516   T   T   T
  2.1432961158783668  2.9200494682135658 24.3516454040509203   T   T   T
  0.2282176923783298  3.8430784117474781 24.3383492188964219   T   T   T
  0.2388751220417196  1.9750694472685941 24.3484430185630742   T   T   T
  2.6999891530351183  3.8572749756278979 24.4053900694699237   T   T   T
  2.7107784532983694  1.9899731562938987 24.4156863357747049   T   T   T
