H2CO molecule | 4 atoms | 20x20x20 A box
   1.00000000000000
   20.0000000000000000    0.0000000000000000    0.0000000000000000
    0.0000000000000000   20.0000000000000000    0.0000000000000000
    0.0000000000000000    0.0000000000000000   20.0000000000000000
  C  O  H
  1  1  2
Cartesian
   10.1939412948455423    9.8002851081678735   10.0141677546273282
   10.5981018636381012   10.9559258254699046   10.0436904229757200
    9.3750646002634230    9.4474068830280835   10.6612068878515860
   10.6249353997365770    9.0440741745300954    9.3387931121484140
