C2H4_Rh111
 1.0000000000000000
    10.7565083554097622    0.0000000000000000    0.0000000000000000
     0.0000000000000000    9.3154094918044255    0.0000000000000000
     0.0000000000000000    0.0000000000000000   36.5869892211844387
 Rh  C   H  
  64   2   4
Selective dynamics
Cartesian
  0.0000000000000000  0.0000000000000000 15.0000000000000000   F   F   F
  2.6891270888524406  0.0000000000000000 15.0000000000000000   F   F   F
  5.3782541777048811  0.0000000000000000 15.0000000000000000   F   F   F
  8.0673812665573212  0.0000000000000000 15.0000000000000000   F   F   F
  1.3445635444262203  2.3288523729511064 15.0000000000000000   F   F   F
  4.0336906332786606  2.3288523729511064 15.0000000000000000   F   F   F
  6.7228177221311016  2.3288523729511064 15.0000000000000000   F   F   F
  9.4119448109835417  2.3288523729511064 15.0000000000000000   F   F   F
  0.0000000000000000  4.6577047459022127 15.0000000000000000   F   F   F
  2.6891270888524406  4.6577047459022127 15.0000000000000000   F   F   F
  5.3782541777048811  4.6577047459022127 15.0000000000000000   F   F   F
  8.0673812665573212  4.6577047459022127 15.0000000000000000   F   F   F
  1.3445635444262203  6.9865571188533195 15.0000000000000000   F   F   F
  4.0336906332786606  6.9865571188533195 15.0000000000000000   F   F   F
  6.7228177221311016  6.9865571188533195 15.0000000000000000   F   F   F
  9.4119448109835417  6.9865571188533195 15.0000000000000000   F   F   F
  1.3445635444262203  0.7762841243170354 17.1956630737281486   F   F   F
  4.0336906332786606  0.7762841243170354 17.1956630737281486   F   F   F
  6.7228177221311016  0.7762841243170354 17.1956630737281486   F   F   F
  9.4119448109835417  0.7762841243170354 17.1956630737281486   F   F   F
  0.0000000000000000  3.1051364972681417 17.1956630737281486   F   F   F
  2.6891270888524406  3.1051364972681417 17.1956630737281486   F   F   F
  5.3782541777048811  3.1051364972681417 17.1956630737281486   F   F   F
  8.0673812665573212  3.1051364972681417 17.1956630737281486   F   F   F
  1.3445635444262203  5.4339888702192489 17.1956630737281486   F   F   F
  4.0336906332786606  5.4339888702192489 17.1956630737281486   F   F   F
  6.7228177221311016  5.4339888702192489 17.1956630737281486   F   F   F
  9.4119448109835417  5.4339888702192489 17.1956630737281486   F   F   F
  0.0000000000000000  7.7628412431703548 17.1956630737281486   F   F   F
  2.6891270888524406  7.7628412431703548 17.1956630737281486   F   F   F
  5.3782541777048811  7.7628412431703548 17.1956630737281486   F   F   F
  8.0673812665573212  7.7628412431703548 17.1956630737281486   F   F   F
 10.7544534662765532  1.5537941882319271 19.4029352329471649   T   T   T
  2.6870419713726741  1.5557371556328856 19.4018587126163560   T   T   T
  5.3754473112468286  1.5503863349156037 19.4011982372808554   T   T   T
  8.0660016034125839  1.5499400581448646 19.3981227591951537   T   T   T
  1.3422484163487598  3.8791292751488404 19.4031224162434626   T   T   T
  4.0420823711573171  3.8848539796651544 19.4349047830469459   T   T   T
  6.7129198631832310  3.8824722865363195 19.4335322310264687   T   T   T
  9.3990928321126788  3.8801201289779339 19.4159726918262479   T   T   T
 10.7528254244892700  6.2097313367047668 19.4007354626161934   T   T   T
  2.6869980780127385  6.2076455339359446 19.4029643030909362   T   T   T
  5.3756561282492692  6.1941860502236636 19.4326824737826129   T   T   T
  8.0608688825831170  6.2018828608755285 19.4131421568481706   T   T   T
  1.3433105511462959  8.5396482738087567 19.3972035377771164   T   T   T
  4.0334739066283349  8.5365232904691748 19.3980650231411680   T   T   T
  6.7178357196434444  8.5302712032882066 19.4056933599531440   T   T   T
  9.4094057912698545  8.5356101221098513 19.3997394284521896   T   T   T
 10.7540760616029800  9.3095578242716126 21.5872739597289822   T   T   T
  2.6808799682083349  9.3115649356521626 21.5868471369148232   T   T   T
  5.3692347199054007  9.3102617862286383 21.5880429528258908   T   T   T
  8.0685616405229705  9.3105842121995330 21.5902580392465389   T   T   T
  1.3391560864012448  2.3261804240831090 21.5901913583984424   T   T   T
  4.0182303206160155  2.3126591661019451 21.5829424880477738   T   T   T
  6.7310228086072366  2.2865895363845179 21.5675202967151947   T   T   T
  9.4103727555315864  2.3201973458056724 21.5905026015586508   T   T   T
 10.7496765895018029  4.6591860667293750 21.5904527244723567   T   T   T
  2.6745609296060993  4.6583322440042458 21.5834920054550672   T   T   T
  5.3838617253317427  4.6461965204851259 21.7758993507988663   T   T   T
  8.0683336939884569  4.6480939906694676 21.6159200075929405   T   T   T
  1.3373369716932959  6.9833970015444864 21.5880434271509785   T   T   T
  4.0114386639319770  7.0027575829520963 21.5798663130224035   T   T   T
  6.7193384212232870  7.0054330845179464 21.5830430114093232   T   T   T
  9.4101795960153627  6.9854993117099902 21.5897875383203477   T   T   T
  5.0118320310638582  4.3079517043711268 23.8195867852998333   T   T   T
  6.3011548112911537  4.9564254058594095 23.7009564698487161   T   T   T
  4.9725975460478882  3.2466339633361052 24.0914010504076614   T   T   T
  4.1623733868308070  4.8971801142289451 24.1803599051461795   T   T   T
  7.1998592257924647  4.3633147555812837 23.9392539686332206   T   T   T
  6.3849514369818792  6.0100263672473284 23.9999198580795543   T   T   T
