HCOOH_Pd111
 1.0000000000000000
     8.2519361364470107    0.0000000000000000    0.0000000000000000
     4.1259680682235054    7.1463863245699208    0.0000000000000000
     0.0000000000000000    0.0000000000000000   36.7376776414429358
 Pd  O   C   H  
  36   2   1   2
Selective dynamics
Cartesian
  0.0000000000000000  0.0000000000000000 15.0000000000000000   F   F   F
  2.7506453788156700  0.0000000000000000 15.0000000000000000   F   F   F
  5.5012907576313399  0.0000000000000000 15.0000000000000000   F   F   F
  1.3753226894078350  2.3821287748566400 15.0000000000000000   F   F   F
  4.1259680682235054  2.3821287748566400 15.0000000000000000   F   F   F
  6.8766134470391753  2.3821287748566400 15.0000000000000000   F   F   F
  2.7506453788156700  4.7642575497132800 15.0000000000000000   F   F   F
  5.5012907576313399  4.7642575497132800 15.0000000000000000   F   F   F
  8.2519361364470107  4.7642575497132800 15.0000000000000000   F   F   F
  1.3753226894078350  0.7940429249522137 17.2458925471476441   F   F   F
  4.1259680682235045  0.7940429249522137 17.2458925471476441   F   F   F
  6.8766134470391744  0.7940429249522137 17.2458925471476441   F   F   F
  2.7506453788156700  3.1761716998088549 17.2458925471476441   F   F   F
  5.5012907576313399  3.1761716998088549 17.2458925471476441   F   F   F
  8.2519361364470090  3.1761716998088549 17.2458925471476441   F   F   F
  4.1259680682235054  5.5583004746654945 17.2458925471476441   F   F   F
  6.8766134470391753  5.5583004746654945 17.2458925471476441   F   F   F
  9.6272588258548453  5.5583004746654945 17.2458925471476441   F   F   F
  8.2511716086122284  1.5869585933143631 19.5194121763562620   T   T   T
  2.7480000747962263  1.5854506342960115 19.5237525039711635   T   T   T
  5.5001474216888244  1.5865381757208579 19.5265257679498347   T   T   T
  9.6235421817036304  3.9687972964401528 19.5239909216972407   T   T   T
  4.1318169369568229  3.9730232757366970 19.5490409875334521   T   T   T
  6.8632270106892017  3.9771903282881405 19.5558362489406221   T   T   T
 11.0031025989411866  6.3498392757747997 19.5243732801571568   T   T   T
  5.5012379814214807  6.3376856830012871 19.5546666364777657   T   T   T
  8.2521087046052859  6.3490650607794104 19.5285850717438016   T   T   T
  8.2508961231369948  0.0027672540931122 21.8294987796317379   T   T   T
  2.7608330393910174  0.0047830616688365 21.8271859982157679   T   T   T
  9.6288447818436751  7.1413662486146290 21.8338617427751025   T   T   T
  1.3764454881185333  2.3781650442404692 21.8336343439152181   T   T   T
  4.1247437147360442  2.3709713642504973 21.8272116633012381   T   T   T
  6.8864232184573364  2.3648035443732902 21.8198775450439975   T   T   T
 10.9927317261265785  4.7599534824970258 21.8241412227543670   T   T   T
  5.5201848156939164  4.7585657186412398 21.9240805430527210   T   T   T
  8.2605411657348800  4.7577277185061568 21.8420974588336669   T   T   T
  7.4684415459777744  4.6331454595231705 24.8201190366409676   T   T   T
  5.2820152399361460  4.7102120462122432 24.1570151903210366   T   T   T
  6.1713433791455605  4.6519685258213146 25.0127125927144220   T   T   T
  7.6473062831310035  4.6718936816408876 23.8007955862330363   T   T   T
  5.9071779872271586  4.6099576313630166 26.0786681158830547   T   T   T
