C2H6_Pd110
 1.0000000000000000
    15.5600000000000005    0.0000000000000000    0.0000000000000000
     0.0000000000000000   11.0025815152626798    0.0000000000000000
     0.0000000000000000    0.0000000000000000   34.1259680682235071
 Pd  C   H  
  64   2   6
Selective dynamics
Cartesian
  1.9450000000000001  1.3753226894078348 14.9999999999999929   F   F   F
  5.8350000000000000  1.3753226894078348 14.9999999999999929   F   F   F
  9.7249999999999996  1.3753226894078348 14.9999999999999929   F   F   F
 13.6150000000000002  1.3753226894078348 14.9999999999999929   F   F   F
  1.9450000000000001  4.1259680682235054 14.9999999999999929   F   F   F
  5.8350000000000000  4.1259680682235054 14.9999999999999929   F   F   F
  9.7249999999999996  4.1259680682235054 14.9999999999999929   F   F   F
 13.6150000000000002  4.1259680682235054 14.9999999999999929   F   F   F
  1.9450000000000001  6.8766134470391735 14.9999999999999929   F   F   F
  5.8350000000000000  6.8766134470391735 14.9999999999999929   F   F   F
  9.7249999999999996  6.8766134470391735 14.9999999999999929   F   F   F
 13.6150000000000002  6.8766134470391735 14.9999999999999929   F   F   F
  1.9450000000000001  9.6272588258548453 14.9999999999999929   F   F   F
  5.8350000000000000  9.6272588258548453 14.9999999999999929   F   F   F
  9.7249999999999996  9.6272588258548453 14.9999999999999929   F   F   F
 13.6150000000000002  9.6272588258548453 14.9999999999999929   F   F   F
  0.0000000000000000  0.0000000000000000 16.3753226894078345   F   F   F
  3.8900000000000001  0.0000000000000000 16.3753226894078345   F   F   F
  7.7800000000000002  0.0000000000000000 16.3753226894078345   F   F   F
 11.6699999999999999  0.0000000000000000 16.3753226894078345   F   F   F
  0.0000000000000000  2.7506453788156695 16.3753226894078345   F   F   F
  3.8900000000000001  2.7506453788156695 16.3753226894078345   F   F   F
  7.7800000000000002  2.7506453788156695 16.3753226894078345   F   F   F
 11.6699999999999999  2.7506453788156695 16.3753226894078345   F   F   F
  0.0000000000000000  5.5012907576313390 16.3753226894078345   F   F   F
  3.8900000000000001  5.5012907576313390 16.3753226894078345   F   F   F
  7.7800000000000002  5.5012907576313390 16.3753226894078345   F   F   F
 11.6699999999999999  5.5012907576313390 16.3753226894078345   F   F   F
  0.0000000000000000  8.2519361364470107 16.3753226894078345   F   F   F
  3.8900000000000001  8.2519361364470107 16.3753226894078345   F   F   F
  7.7800000000000002  8.2519361364470107 16.3753226894078345   F   F   F
 11.6699999999999999  8.2519361364470107 16.3753226894078345   F   F   F
  1.9458254060127391  1.3753957502518834 17.8220791781890320   T   T   T
  5.8352588543612436  1.3757886860309030 17.8238960828962298   T   T   T
  9.7237877647483586  1.3742135445169690 17.8245060514460683   T   T   T
 13.6148551532685840  1.3755908400041945 17.8219201968846299   T   T   T
  1.9437883510926652  4.1244208702619902 17.8202080690957843   T   T   T
  5.8330386628386055  4.1286257684201146 17.8214879397573291   T   T   T
  9.7234932614024459  4.1264589558122573 17.8183275210404624   T   T   T
 13.6146183688592259  4.1264231002463214 17.8223635829936278   T   T   T
  1.9439385746706093  6.8771281237503317 17.8214621312159309   T   T   T
  5.8361738480916987  6.8761928325871473 17.8147458225556790   T   T   T
  9.7187763485264203  6.8761981657038742 17.8191292734991329   T   T   T
 13.6148503335041120  6.8762867821973543 17.8223187097084264   T   T   T
  1.9447474696419491  9.6278880643802704 17.8217551048519773   T   T   T
  5.8346814227044543  9.6250021100916374 17.8219675597291207   T   T   T
  9.7240369773994573  9.6259483355681894 17.8183750071246969   T   T   T
 13.6150515109636174  9.6272130998200112 17.8220716967116530   T   T   T
  0.0001858917757396  0.0001470306806336 19.1685219399143563   T   T   T
  3.8900867318341672 11.0012603005430876 19.1684417874139754   T   T   T
  7.7795852475648806  0.0006783393427688 19.1663053677183157   T   T   T
 11.6694482598179228 11.0019489600812843 19.1684046934911976   T   T   T
 15.5599626881055144  2.7501678892845969 19.1688642826832663   T   T   T
  3.8913651423604096  2.7530742689671692 19.1704999922060999   T   T   T
  7.7792217945524085  2.7468246584770108 19.1637778083769916   T   T   T
 11.6690521595678884  2.7515141913968719 19.1688468370552307   T   T   T
  0.0003940345604689  5.5011261658475004 19.1686570282282354   T   T   T
  3.8877888222879178  5.5052882295936101 19.1616231079005814   T   T   T
  7.7910296148389584  5.4874871994907970 19.1813777913379298   T   T   T
 11.6622965695418763  5.5019052960349288 19.1676727768026787   T   T   T
  0.0002325371594264  8.2524041065740423 19.1685676497539177   T   T   T
  3.8925954092064821  8.2513828863162377 19.1636366560091140   T   T   T
  7.7803945243099308  8.2600793291451922 19.1810434461475339   T   T   T
 11.6659718943275088  8.2505347172635641 19.1648982371572316   T   T   T
  7.2597613705957098  7.5541110012783221 21.8646974719463003   T   T   T
  6.8491319699803483  6.0884355210144356 21.7251791134149173   T   T   T
  6.4459677519674274  8.2323569262277907 21.5653910160718283   T   T   T
  7.5278042113052113  7.8031845621271012 22.9035041587550445   T   T   T
  8.1810176961649077  7.7856933521033751 21.2739873769118759   T   T   T
  6.1590679574316249  5.7774615453034732 22.5265971863177583   T   T   T
  7.7192336573514915  5.4109829401004292 21.7715286461858639   T   T   T
  6.2703605588194975  5.9113340483416144 20.7862533737663959   T   T   T
