H2O_Cu110
 1.0000000000000000
    10.8300000000000001    0.0000000000000000    0.0000000000000000
     0.0000000000000000    5.1053109601668734    0.0000000000000000
     0.0000000000000000    0.0000000000000000   33.8289832201251528
 Cu  O   H  
  24   1   2
Selective dynamics
Cartesian
  1.8049999999999999  1.2763277400417183 14.9999999999999982   F   F   F
  5.4149999999999991  1.2763277400417183 14.9999999999999982   F   F   F
  9.0249999999999986  1.2763277400417183 14.9999999999999982   F   F   F
  1.8049999999999999  3.8289832201251550 14.9999999999999982   F   F   F
  5.4149999999999991  3.8289832201251550 14.9999999999999982   F   F   F
  9.0249999999999986  3.8289832201251550 14.9999999999999982   F   F   F
  0.0000000000000000  0.0000000000000000 16.2763277400417152   F   F   F
  3.6099999999999999  0.0000000000000000 16.2763277400417152   F   F   F
  7.2199999999999998  0.0000000000000000 16.2763277400417152   F   F   F
  0.0000000000000000  2.5526554800834367 16.2763277400417152   F   F   F
  3.6099999999999999  2.5526554800834367 16.2763277400417152   F   F   F
  7.2199999999999998  2.5526554800834367 16.2763277400417152   F   F   F
  1.8055195165391165  1.2845395998567131 17.6067006939246973   T   T   T
  5.4154241097996714  1.2851973905290219 17.6042049816716073   T   T   T
  9.0239814375683149  1.2726378597333809 17.6150959426196749   T   T   T
  1.8047023563889659  3.8242498956053939 17.6024760148619812   T   T   T
  5.4160189672236250  3.8237049486506502 17.6009895838734174   T   T   T
  9.0240809697097983  3.8324467419422903 17.6157227888832004   T   T   T
  0.0125013045827931  0.0004555302180347 18.7811042725065320   T   T   T
  3.6124759586790742  0.0048930655761375 18.7238857041781941   T   T   T
  7.2059708289983728  0.0005310775317374 18.7774832409884098   T   T   T
 10.8242213246970085  2.5528827986380080 18.7745696762162524   T   T   T
  3.6254600263215582  2.5610156740610690 18.8293565789421606   T   T   T
  7.2211626178966801  2.5530873567483425 18.7757141234846543   T   T   T
  3.3952640330763768  2.5859347527631775 20.9390887461029251   T   T   T
  2.4984539812004929  2.2351555624742732 21.1160193156425144   T   T   T
  4.0145773395813817  1.9793351246846393 21.3936376140218414   T   T   T
