CH3_Pt100
 1.0000000000000000
     8.3155757467537992    0.0000000000000000    0.0000000000000000
     0.0000000000000000    8.3155757467537992    0.0000000000000000
     0.0000000000000000    0.0000000000000000   35.8800000000000026
 Pt  C   H  
  36   1   3
Selective dynamics
Cartesian
  1.3859292911256331  1.3859292911256331 15.0000000000000018   F   F   F
  4.1577878733768996  1.3859292911256331 15.0000000000000018   F   F   F
  6.9296464556281654  1.3859292911256331 15.0000000000000018   F   F   F
  1.3859292911256331  4.1577878733768996 15.0000000000000018   F   F   F
  4.1577878733768996  4.1577878733768996 15.0000000000000018   F   F   F
  6.9296464556281654  4.1577878733768996 15.0000000000000018   F   F   F
  1.3859292911256331  6.9296464556281654 15.0000000000000018   F   F   F
  4.1577878733768996  6.9296464556281654 15.0000000000000018   F   F   F
  6.9296464556281654  6.9296464556281654 15.0000000000000018   F   F   F
  0.0000000000000000  0.0000000000000000 16.9600000000000009   F   F   F
  2.7718585822512662  0.0000000000000000 16.9600000000000009   F   F   F
  5.5437171645025325  0.0000000000000000 16.9600000000000009   F   F   F
  0.0000000000000000  2.7718585822512662 16.9600000000000009   F   F   F
  2.7718585822512662  2.7718585822512662 16.9600000000000009   F   F   F
  5.5437171645025325  2.7718585822512662 16.9600000000000009   F   F   F
  0.0000000000000000  5.5437171645025325 16.9600000000000009   F   F   F
  2.7718585822512662  5.5437171645025325 16.9600000000000009   F   F   F
  5.5437171645025325  5.5437171645025325 16.9600000000000009   F   F   F
  1.3892674650638390  1.3866097668420712 18.9495021055208710   T   T   T
  4.1544767179408213  1.3866299442743057 18.9498138875541322   T   T   T
  6.9294680876746630  1.3868797016465080 18.9449412870568743   T   T   T
  1.3963955524147229  4.1696932753342661 18.9621150237535261   T   T   T
  4.1462130601696376  4.1697429726979802 18.9623145392848897   T   T   T
  6.9290250462980518  4.1621049377517609 18.9497368052635657   T   T   T
  1.3969561536358386  6.9192264060857811 18.9636250729446765   T   T   T
  4.1456725822353970  6.9191360239234898 18.9638366878973095   T   T   T
  6.9289615479291689  6.9277208260504270 18.9489836807090697   T   T   T
  0.0051870100694331  8.3128203763958126 20.9244007930894931   T   T   T
  2.7716916626392161  0.0021024395170088 20.9335478378622888   T   T   T
  5.5379547592405522  8.3124244264985148 20.9249990443959248   T   T   T
  0.0057733932406048  2.7800565137531903 20.9241434259510015   T   T   T
  2.7716875538484822  2.7782320310353206 20.9318937360392496   T   T   T
  5.5376699071594997  2.7802679490051876 20.9246357024668548   T   T   T
  8.3149014642918857  5.5459597746521654 20.9312824272207330   T   T   T
  2.7699614357812274  5.5499956855062527 21.1143345171185608   T   T   T
  5.5400815977309739  5.5457537488204016 20.9326530521752829   T   T   T
  2.7450355041772108  5.4983725109528248 23.1624595249407754   T   T   T
  2.7381537512530518  6.5376426817423727 23.5191002289312756   T   T   T
  1.8356173712464361  4.9634271967426686 23.4669354264354091   T   T   T
  3.6511032999901993  4.9678652238355445 23.4841728324420060   T   T   T
