H2CO_Ir100
 1.0000000000000000
     8.1458701192690270    0.0000000000000000    0.0000000000000000
     0.0000000000000000    8.1458701192690270    0.0000000000000000
     0.0000000000000000    0.0000000000000000   35.7599999999999980
 Ir  C   O   H  
  36   1   1   2
Selective dynamics
Cartesian
  1.3576450198781711  1.3576450198781711 15.0000000000000018   F   F   F
  4.0729350596345135  1.3576450198781711 15.0000000000000018   F   F   F
  6.7882250993908553  1.3576450198781711 15.0000000000000018   F   F   F
  1.3576450198781711  4.0729350596345135 15.0000000000000018   F   F   F
  4.0729350596345135  4.0729350596345135 15.0000000000000018   F   F   F
  6.7882250993908553  4.0729350596345135 15.0000000000000018   F   F   F
  1.3576450198781711  6.7882250993908553 15.0000000000000018   F   F   F
  4.0729350596345135  6.7882250993908553 15.0000000000000018   F   F   F
  6.7882250993908553  6.7882250993908553 15.0000000000000018   F   F   F
  0.0000000000000000  0.0000000000000000 16.9200000000000017   F   F   F
  2.7152900397563422  0.0000000000000000 16.9200000000000017   F   F   F
  5.4305800795126844  0.0000000000000000 16.9200000000000017   F   F   F
  0.0000000000000000  2.7152900397563422 16.9200000000000017   F   F   F
  2.7152900397563422  2.7152900397563422 16.9200000000000017   F   F   F
  5.4305800795126844  2.7152900397563422 16.9200000000000017   F   F   F
  0.0000000000000000  5.4305800795126844 16.9200000000000017   F   F   F
  2.7152900397563422  5.4305800795126844 16.9200000000000017   F   F   F
  5.4305800795126844  5.4305800795126844 16.9200000000000017   F   F   F
  1.3612838800338574  1.3641215805424438 18.8801687137081800   T   T   T
  4.0690531362323794  1.3644362706498270 18.8803554974759358   T   T   T
  6.7874980449432627  1.3492630212929404 18.8701549734898499   T   T   T
  1.3765588404671920  4.0715530821547441 18.9122005597437344   T   T   T
  4.0535568019550379  4.0724670451814253 18.9116371632419877   T   T   T
  6.7865768770361568  4.0688228480769997 18.8723184210896768   T   T   T
  1.3741942089664658  6.7692685126901573 18.9075110255464942   T   T   T
  4.0546931034323412  6.7700608452952924 18.9072513446687154   T   T   T
  6.7887119806702483  6.7905277173937781 18.8695735293148168   T   T   T
  0.0096596920218352  0.0004846729955066 20.7416762115613871   T   T   T
  2.7152739130198675  0.0297854315241572 20.7378417890233280   T   T   T
  5.4205562092435517  8.1444921188731545 20.7410974117706672   T   T   T
  8.1285939625683099  2.7105505767542919 20.7279835962977224   T   T   T
  2.7175231451849382  2.7104577999300168 20.8054750172423617   T   T   T
  5.4499958627550864  2.7112197666264266 20.7281620759329002   T   T   T
  8.1152930353312112  5.4265175529755290 20.7271504779325078   T   T   T
  2.7112415199900020  5.4825362660614445 20.8447418227212005   T   T   T
  5.4563795431201330  5.4273844283875077 20.7260313565612755   T   T   T
  2.7602650107444098  3.5162505561684831 22.7380800586493805   T   T   T
  2.6800137701783626  4.8910508830317347 22.7085739275430889   T   T   T
  1.9018630007756563  3.0697065273726345 23.2851755068911537   T   T   T
  3.7206365577393643  3.1819335270966245 23.1899852020715578   T   T   T
