CH3COOH_Au111
 1.0000000000000000
     8.6549870017233435    0.0000000000000000    0.0000000000000000
     4.3274935008616717    7.4954386129165247    0.0000000000000000
     0.0000000000000000    0.0000000000000000   37.0667672948810178
 Au  C   O   H  
  36   2   2   4
Selective dynamics
Cartesian
  0.0000000000000000  0.0000000000000000 15.0000000000000000   F   F   F
  2.8849956672411143  0.0000000000000000 15.0000000000000000   F   F   F
  5.7699913344822287  0.0000000000000000 15.0000000000000000   F   F   F
  1.4424978336205572  2.4984795376388416 15.0000000000000000   F   F   F
  4.3274935008616717  2.4984795376388416 15.0000000000000000   F   F   F
  7.2124891681027856  2.4984795376388416 15.0000000000000000   F   F   F
  2.8849956672411143  4.9969590752776831 15.0000000000000000   F   F   F
  5.7699913344822287  4.9969590752776831 15.0000000000000000   F   F   F
  8.6549870017233435  4.9969590752776831 15.0000000000000000   F   F   F
  1.4424978336205572  0.8328265125462805 17.3555890982936738   F   F   F
  4.3274935008616717  0.8328265125462805 17.3555890982936738   F   F   F
  7.2124891681027865  0.8328265125462805 17.3555890982936738   F   F   F
  2.8849956672411143  3.3313060501851219 17.3555890982936738   F   F   F
  5.7699913344822287  3.3313060501851219 17.3555890982936738   F   F   F
  8.6549870017233435  3.3313060501851219 17.3555890982936738   F   F   F
  4.3274935008616717  5.8297855878239639 17.3555890982936738   F   F   F
  7.2124891681027856  5.8297855878239639 17.3555890982936738   F   F   F
 10.0974848353439004  5.8297855878239639 17.3555890982936738   F   F   F
  8.6559362442362655  1.6674556614860108 19.8007450459909258   T   T   T
  2.8843669300736807  1.6678749637895438 19.7981339308546467   T   T   T
  5.7696876439343212  1.6653760911214051 19.8012210180921713   T   T   T
 10.0977002190411120  4.1625704138028095 19.7973469780392435   T   T   T
  4.3322150852308310  4.1664630116438541 19.8177612570412407   T   T   T
  7.2090124256309123  4.1667455616855982 19.8176833878800451   T   T   T
 11.5394781295125615  6.6625397127172521 19.8034223192044152   T   T   T
  5.7698833195414991  6.6599743369882543 19.8197360132270184   T   T   T
  8.6546938834815759  6.6626379517814076 19.8030464065014122   T   T   T
  8.6529855774138689  0.0023428804394716 22.3003073658430857   T   T   T
  2.8883336388739993  0.0055306071817010 22.2988796814534034   T   T   T
  5.7694439371668880  0.0000341434919413 22.3145541389627127   T   T   T
  1.4425076418240990  2.4980116407832305 22.3128855747405375   T   T   T
  4.3256754873713028  2.4942678951135879 22.3123327701308121   T   T   T
  7.2140297425539570  2.4931334174207209 22.3020867934491172   T   T   T
 11.5330070280465655  4.9978015369509503 22.2981151587983035   T   T   T
  5.7700726273869769  4.9952903301495599 22.3339750833439012   T   T   T
  8.6583647691892853  4.9966097679085584 22.3021965607821357   T   T   T
  5.1833403964473144  4.9872781414696776 27.4854845217366481   T   T   T
  5.2210800413559300  4.6779525007751328 26.0230325373584606   T   T   T
  5.8448325481073544  5.3120414131868676 25.1752418014758739   T   T   T
  4.4632409609885979  3.5954643040404668 25.7148519656796459   T   T   T
  5.4352934710415095  4.0882323317254965 28.0597953557509889   T   T   T
  4.1616466262022733  5.2788014323016084 27.7590691014740045   T   T   T
  5.8718567708684297  5.8012875775667236 27.7152191824000447   T   T   T
  4.5369474194029094  3.4701289543690974 24.7358433742332160   T   T   T
