CH4 molecule | 5 atoms | 20x20x20 A box
   1.00000000000000
   20.0000000000000000    0.0000000000000000    0.0000000000000000
    0.0000000000000000   20.0000000000000000    0.0000000000000000
    0.0000000000000000    0.0000000000000000   20.0000000000000000
  C  H
  1  4
Cartesian
   10.0000000000000000   10.0000000000000000   10.0000000000000000
   10.6291179999999983   10.6291179999999983   10.6291179999999983
    9.3708820000000017    9.3708820000000017   10.6291179999999983
   10.6291179999999983    9.3708820000000017    9.3708820000000017
    9.3708820000000017   10.6291179999999983    9.3708820000000017
