CH3CH2OH_Pd100
 1.0000000000000000
    11.0025815152626798    0.0000000000000000    0.0000000000000000
     0.0000000000000000   11.0025815152626798    0.0000000000000000
     0.0000000000000000    0.0000000000000000   35.8350000000000009
 Pd  C   O   H  
  64   2   1   6
Selective dynamics
Cartesian
  1.3753226894078348  1.3753226894078348 15.0000000000000000   F   F   F
  4.1259680682235054  1.3753226894078348 15.0000000000000000   F   F   F
  6.8766134470391735  1.3753226894078348 15.0000000000000000   F   F   F
  9.6272588258548453  1.3753226894078348 15.0000000000000000   F   F   F
  1.3753226894078348  4.1259680682235054 15.0000000000000000   F   F   F
  4.1259680682235054  4.1259680682235054 15.0000000000000000   F   F   F
  6.8766134470391735  4.1259680682235054 15.0000000000000000   F   F   F
  9.6272588258548453  4.1259680682235054 15.0000000000000000   F   F   F
  1.3753226894078348  6.8766134470391735 15.0000000000000000   F   F   F
  4.1259680682235054  6.8766134470391735 15.0000000000000000   F   F   F
  6.8766134470391735  6.8766134470391735 15.0000000000000000   F   F   F
  9.6272588258548453  6.8766134470391735 15.0000000000000000   F   F   F
  1.3753226894078348  9.6272588258548453 15.0000000000000000   F   F   F
  4.1259680682235054  9.6272588258548453 15.0000000000000000   F   F   F
  6.8766134470391735  9.6272588258548453 15.0000000000000000   F   F   F
  9.6272588258548453  9.6272588258548453 15.0000000000000000   F   F   F
  0.0000000000000000  0.0000000000000000 16.9450000000000003   F   F   F
  2.7506453788156695  0.0000000000000000 16.9450000000000003   F   F   F
  5.5012907576313390  0.0000000000000000 16.9450000000000003   F   F   F
  8.2519361364470107  0.0000000000000000 16.9450000000000003   F   F   F
  0.0000000000000000  2.7506453788156695 16.9450000000000003   F   F   F
  2.7506453788156695  2.7506453788156695 16.9450000000000003   F   F   F
  5.5012907576313390  2.7506453788156695 16.9450000000000003   F   F   F
  8.2519361364470107  2.7506453788156695 16.9450000000000003   F   F   F
  0.0000000000000000  5.5012907576313390 16.9450000000000003   F   F   F
  2.7506453788156695  5.5012907576313390 16.9450000000000003   F   F   F
  5.5012907576313390  5.5012907576313390 16.9450000000000003   F   F   F
  8.2519361364470107  5.5012907576313390 16.9450000000000003   F   F   F
  0.0000000000000000  8.2519361364470107 16.9450000000000003   F   F   F
  2.7506453788156695  8.2519361364470107 16.9450000000000003   F   F   F
  5.5012907576313390  8.2519361364470107 16.9450000000000003   F   F   F
  8.2519361364470107  8.2519361364470107 16.9450000000000003   F   F   F
  1.3760015115999471  1.3740306119915917 18.9430340606242922   T   T   T
  4.1264190384924602  1.3822334855547584 18.9415734188603402   T   T   T
  6.8760378579815322  1.3767539455473257 18.9382347859754603   T   T   T
  9.6288733411778011  1.3730314315094314 18.9411103962941425   T   T   T
  1.3807560476027441  4.1244423963685160 18.9353743685320310   T   T   T
  4.1400468897145277  4.1386993497670010 18.9605216770295755   T   T   T
  6.8682368651206627  4.1263237564737096 18.9499415434527876   T   T   T
  9.6296728484083935  4.1234861577484061 18.9326207094774617   T   T   T
  1.3773348990228915  6.8789926745919141 18.9359602865316106   T   T   T
  4.1315415713283308  6.8676839338960365 18.9500290694451401   T   T   T
  6.8706393155479564  6.8683710056546543 18.9458661198339513   T   T   T
  9.6271816617796180  6.8797559141591904 18.9363095420567014   T   T   T
  1.3733152197013658  9.6281626358395407 18.9445619817179178   T   T   T
  4.1208881312383117  9.6312760471837322 18.9335018605986072   T   T   T
  6.8783245800363577  9.6273487750181967 18.9350455792087402   T   T   T
  9.6287006551508973  9.6297781674509473 18.9426176265200361   T   T   T
 11.0022847682157323  0.0007322571578502 20.9326853816512823   T   T   T
  2.7556394926472478  0.0046572293625853 20.9304220485376042   T   T   T
  5.4997603328677060 10.9915013716647980 20.9273196481631025   T   T   T
  8.2449546292299960  0.0015410309875016 20.9306167436482191   T   T   T
  0.0040654053178732  2.7535091651696049 20.9257599591526180   T   T   T
  2.7568086426350074  2.7618943484676981 20.9308434068082612   T   T   T
  5.5075365696008216  2.7198491580910447 20.9410631329461268   T   T   T
  8.2549796496376171  2.7506520390272700 20.9218896344039500   T   T   T
 11.0009168564720010  5.4995172324396728 20.9209280109386810   T   T   T
  2.7228850490035343  5.5036636269874029 20.9290337042354970   T   T   T
  5.4653047699538053  5.4641842204702069 20.9899686559576288   T   T   T
  8.2696504954595795  5.4966172542822926 20.9056988424147328   T   T   T
 11.0002194216643954  8.2481390304303783 20.9299472350114435   T   T   T
  2.7559856912459209  8.2500241370548064 20.9269866164158387   T   T   T
  5.5004558294156345  8.2617414690423203 20.9069471356010119   T   T   T
  8.2456287312116849  8.2529727148820893 20.9223854604002248   T   T   T
  5.2650683627303243  3.8010542632984361 24.1463054052146830   T   T   T
  5.3445560790777806  5.2975030400555196 24.2728435903907958   T   T   T
  6.0417624808154669  5.8438814303808506 23.1204569595233487   T   T   T
  6.2638444756182938  3.3640447613203643 24.0222350121120947   T   T   T
  4.8088009834620555  3.3676908098948513 25.0467229889305649   T   T   T
  4.6466606649364266  3.5060539859551567 23.2816952067720955   T   T   T
  5.9158384206813110  5.5921559024000924 25.1706601400369117   T   T   T
  4.3427103853250317  5.7576174091364374 24.3442365203722701   T   T   T
  6.0081938866114459  6.8257996049510323 23.1209783033941463   T   T   T
