SO2_Pt110
 1.0000000000000000
    11.7599999999999998    0.0000000000000000    0.0000000000000000
     0.0000000000000000    5.5437171645025325    0.0000000000000000
     0.0000000000000000    0.0000000000000000   34.1577878733768969
 Pt  S   O  
  24   1   2
Selective dynamics
Cartesian
  1.9600000000000000  1.3859292911256331 14.9999999999999982   F   F   F
  5.8799999999999999  1.3859292911256331 14.9999999999999982   F   F   F
  9.8000000000000007  1.3859292911256331 14.9999999999999982   F   F   F
  1.9600000000000000  4.1577878733768996 14.9999999999999982   F   F   F
  5.8799999999999999  4.1577878733768996 14.9999999999999982   F   F   F
  9.8000000000000007  4.1577878733768996 14.9999999999999982   F   F   F
  0.0000000000000000  0.0000000000000000 16.3859292911256311   F   F   F
  3.9199999999999999  0.0000000000000000 16.3859292911256311   F   F   F
  7.8399999999999999  0.0000000000000000 16.3859292911256311   F   F   F
  0.0000000000000000  2.7718585822512662 16.3859292911256311   F   F   F
  3.9199999999999999  2.7718585822512662 16.3859292911256311   F   F   F
  7.8399999999999999  2.7718585822512662 16.3859292911256311   F   F   F
  1.9670265192459702  1.3953754991038902 17.8642361156677261   T   T   T
  5.8806740432846816  1.3930908124737298 17.8311527594955557   T   T   T
  9.8069826989897688  1.3863197243511389 17.9017923335775571   T   T   T
  1.9888841693107886  4.1715111267769851 17.8855701963790032   T   T   T
  5.8698462765873458  4.1656395684698433 17.8895683639306000   T   T   T
  9.8032327372907435  4.1573054879873963 17.9160298831048195   T   T   T
  0.0270146052180488  0.0027862042213515 19.1763071822696993   T   T   T
  3.9291878073315112  5.5405847268141741 19.2634611282325459   T   T   T
  7.8276878862102617  0.0018133729064502 19.1727969954723534   T   T   T
  0.0301043752889408  2.7801832599231582 19.1749019367451332   T   T   T
  3.9140659749049984  2.8251910593691774 19.2475497827498749   T   T   T
  7.8271565875895623  2.7708334741268179 19.1743267918061342   T   T   T
  4.3929167888209886  1.4369097008405227 21.0046290240901499   T   T   T
  5.8086448595591103  1.4732493283439727 21.3913074926577593   T   T   T
  3.4202115660142987  1.4353166282887824 22.0876210872852674   T   T   T
