N2_Au110
 1.0000000000000000
    16.3200000000000003    0.0000000000000000    0.0000000000000000
     0.0000000000000000   11.5399826689644573    0.0000000000000000
     0.0000000000000000    0.0000000000000000   34.3274935008616708
 Au  N  
  64   2
Selective dynamics
Cartesian
  2.0400000000000000  1.4424978336205572 14.9999999999999964   F   F   F
  6.1200000000000001  1.4424978336205572 14.9999999999999964   F   F   F
 10.1999999999999922  1.4424978336205572 14.9999999999999964   F   F   F
 14.2800000000000011  1.4424978336205572 14.9999999999999964   F   F   F
  2.0400000000000000  4.3274935008616717 14.9999999999999964   F   F   F
  6.1200000000000001  4.3274935008616717 14.9999999999999964   F   F   F
 10.1999999999999922  4.3274935008616717 14.9999999999999964   F   F   F
 14.2800000000000011  4.3274935008616717 14.9999999999999964   F   F   F
  2.0400000000000000  7.2124891681027856 14.9999999999999964   F   F   F
  6.1200000000000001  7.2124891681027856 14.9999999999999964   F   F   F
 10.1999999999999922  7.2124891681027856 14.9999999999999964   F   F   F
 14.2800000000000011  7.2124891681027856 14.9999999999999964   F   F   F
  2.0400000000000000 10.0974848353439004 14.9999999999999964   F   F   F
  6.1200000000000001 10.0974848353439004 14.9999999999999964   F   F   F
 10.1999999999999922 10.0974848353439004 14.9999999999999964   F   F   F
 14.2800000000000011 10.0974848353439004 14.9999999999999964   F   F   F
  0.0000000000000000  0.0000000000000000 16.4424978336205569   F   F   F
  4.0800000000000001  0.0000000000000000 16.4424978336205569   F   F   F
  8.1600000000000001  0.0000000000000000 16.4424978336205569   F   F   F
 12.2400000000000002  0.0000000000000000 16.4424978336205569   F   F   F
  0.0000000000000000  2.8849956672411143 16.4424978336205569   F   F   F
  4.0800000000000001  2.8849956672411143 16.4424978336205569   F   F   F
  8.1600000000000001  2.8849956672411143 16.4424978336205569   F   F   F
 12.2400000000000002  2.8849956672411143 16.4424978336205569   F   F   F
  0.0000000000000000  5.7699913344822287 16.4424978336205569   F   F   F
  4.0800000000000001  5.7699913344822287 16.4424978336205569   F   F   F
  8.1600000000000001  5.7699913344822287 16.4424978336205569   F   F   F
 12.2400000000000002  5.7699913344822287 16.4424978336205569   F   F   F
  0.0000000000000000  8.6549870017233435 16.4424978336205569   F   F   F
  4.0800000000000001  8.6549870017233435 16.4424978336205569   F   F   F
  8.1600000000000001  8.6549870017233435 16.4424978336205569   F   F   F
 12.2400000000000002  8.6549870017233435 16.4424978336205569   F   F   F
  2.0401349319696833  1.4426709699576181 18.0685397652317654   T   T   T
  6.1200029355014633  1.4429852153070155 18.0687581180472527   T   T   T
 10.1998554838081130  1.4426767669723866 18.0685487733216981   T   T   T
 14.2799995826571084  1.4423902168188176 18.0688127157303597   T   T   T
  2.0398115075767627  4.3275021269927478 18.0682799249989614   T   T   T
  6.1199963571948706  4.3274605880252643 18.0722828563832572   T   T   T
 10.2001783107417907  4.3275068625677786 18.0682824962533317   T   T   T
 14.2799989840014909  4.3274949586380247 18.0688661166846884   T   T   T
  2.0401532469559278  7.2123007465765046 18.0685445258770905   T   T   T
  6.1199996808677302  7.2119738300388043 18.0687982191749441   T   T   T
 10.1998350420075639  7.2122888028359959 18.0685454791506608   T   T   T
 14.2800001406798138  7.2125951922163525 18.0688141795166786   T   T   T
  2.0402011368248987 10.0974821310301817 18.0687520297279285   T   T   T
  6.1199941515866456 10.0975035983001380 18.0688312692975401   T   T   T
 10.1998039309713668 10.0974817003877710 18.0687485214951629   T   T   T
 14.2800005012056523 10.0974826613953503 18.0686668324419095   T   T   T
  0.0000604863029751  0.0000760285394270 19.4115025813541209   T   T   T
  4.0800949173345264  0.0008355229878224 19.4117161832988394   T   T   T
  8.1598911590663246  0.0008681855296582 19.4117496243832690   T   T   T
 12.2399378779529933  0.0000758102737796 19.4115043308569390   T   T   T
  0.0000358822871139  2.8850520341597758 19.4115011266532953   T   T   T
  4.0789238639315659  2.8861430491443087 19.4093557266072168   T   T   T
  8.1610539034121672  2.8861210168743874 19.4093862844964669   T   T   T
 12.2399678730058739  2.8850501109841096 19.4115018390457976   T   T   T
  0.0000482542778772  5.7699325602277707 19.4114983354509612   T   T   T
  4.0789571525560193  5.7688244793404513 19.4094338983270411   T   T   T
  8.1610143961810220  5.7688335291714266 19.4095277818006480   T   T   T
 12.2399501566821112  5.7699332998318278 19.4114988441608816   T   T   T
  0.0000653912059806  8.6549116475052337 19.4115000111020457   T   T   T
  4.0801333704258669  8.6540941360313912 19.4118374158630083   T   T   T
  8.1598352554797184  8.6540642920353754 19.4118792900819663   T   T   T
 12.2399321550241567  8.6549114962210840 19.4115012692349502   T   T   T
  6.0998968077234181  4.8732361704758267 23.2936413773986963   T   T   T
  6.1075228283813709  3.7612715616374479 23.2718112828065244   T   T   T
