H2CO_Au100
 1.0000000000000000
    11.5399826689644573    0.0000000000000000    0.0000000000000000
     0.0000000000000000   11.5399826689644573    0.0000000000000000
     0.0000000000000000    0.0000000000000000   36.1199999999999974
 Au  C   O   H  
  64   1   1   2
Selective dynamics
Cartesian
  1.4424978336205572  1.4424978336205572 14.9999999999999982   F   F   F
  4.3274935008616717  1.4424978336205572 14.9999999999999982   F   F   F
  7.2124891681027856  1.4424978336205572 14.9999999999999982   F   F   F
 10.0974848353439004  1.4424978336205572 14.9999999999999982   F   F   F
  1.4424978336205572  4.3274935008616717 14.9999999999999982   F   F   F
  4.3274935008616717  4.3274935008616717 14.9999999999999982   F   F   F
  7.2124891681027856  4.3274935008616717 14.9999999999999982   F   F   F
 10.0974848353439004  4.3274935008616717 14.9999999999999982   F   F   F
  1.4424978336205572  7.2124891681027856 14.9999999999999982   F   F   F
  4.3274935008616717  7.2124891681027856 14.9999999999999982   F   F   F
  7.2124891681027856  7.2124891681027856 14.9999999999999982   F   F   F
 10.0974848353439004  7.2124891681027856 14.9999999999999982   F   F   F
  1.4424978336205572 10.0974848353439004 14.9999999999999982   F   F   F
  4.3274935008616717 10.0974848353439004 14.9999999999999982   F   F   F
  7.2124891681027856 10.0974848353439004 14.9999999999999982   F   F   F
 10.0974848353439004 10.0974848353439004 14.9999999999999982   F   F   F
  0.0000000000000000  0.0000000000000000 17.0399999999999991   F   F   F
  2.8849956672411143  0.0000000000000000 17.0399999999999991   F   F   F
  5.7699913344822287  0.0000000000000000 17.0399999999999991   F   F   F
  8.6549870017233435  0.0000000000000000 17.0399999999999991   F   F   F
  0.0000000000000000  2.8849956672411143 17.0399999999999991   F   F   F
  2.8849956672411143  2.8849956672411143 17.0399999999999991   F   F   F
  5.7699913344822287  2.8849956672411143 17.0399999999999991   F   F   F
  8.6549870017233435  2.8849956672411143 17.0399999999999991   F   F   F
  0.0000000000000000  5.7699913344822287 17.0399999999999991   F   F   F
  2.8849956672411143  5.7699913344822287 17.0399999999999991   F   F   F
  5.7699913344822287  5.7699913344822287 17.0399999999999991   F   F   F
  8.6549870017233435  5.7699913344822287 17.0399999999999991   F   F   F
  0.0000000000000000  8.6549870017233435 17.0399999999999991   F   F   F
  2.8849956672411143  8.6549870017233435 17.0399999999999991   F   F   F
  5.7699913344822287  8.6549870017233435 17.0399999999999991   F   F   F
  8.6549870017233435  8.6549870017233435 17.0399999999999991   F   F   F
  1.4420698241768994  1.4430382940336224 19.1828845252897935   T   T   T
  4.3279292348315259  1.4430318800744795 19.1828097686791210   T   T   T
  7.2121419747077269  1.4424017393873849 19.1844694720029523   T   T   T
 10.0978321553389883  1.4423862021324436 19.1844530522008121   T   T   T
  1.4438066652454771  4.3281521154475273 19.1883561806382623   T   T   T
  4.3263749858186555  4.3280708004359809 19.1882116201821979   T   T   T
  7.2119580227011486  4.3267157117855648 19.1825750759312363   T   T   T
 10.0980134511602770  4.3267943739611177 19.1826175025164574   T   T   T
  1.4431986090953883  7.2107433619561929 19.1888223952477652   T   T   T
  4.3269274365920758  7.2108947963843431 19.1886019672057024   T   T   T
  7.2125857266697979  7.2139198875453543 19.1814356374856594   T   T   T
 10.0975845227300685  7.2138568284975850 19.1815597308136638   T   T   T
  1.4410250235012325 10.0982057019068172 19.1808783965862446   T   T   T
  4.3289428496221740 10.0983509040683810 19.1806250666063853   T   T   T
  7.2122615107180508 10.0971873320181160 19.1845049874843490   T   T   T
 10.0977573315972382 10.0971107904168385 19.1845581900596507   T   T   T
  0.0015165148434054 11.5395858393727870 21.3063757535801628   T   T   T
  2.8850848870506050 11.5378592443474055 21.3093558114863519   T   T   T
  5.7684293955792638 11.5395921387806872 21.3064282998094079   T   T   T
  8.6549900679598792 11.5396530217313540 21.3061887189535106   T   T   T
  0.0029121027551580  2.8872157453539256 21.3070091579440692   T   T   T
  2.8850287557578600  2.8734913198378145 21.3035872899771768   T   T   T
  5.7670999984548192  2.8869804349329411 21.3069276159954057   T   T   T
  8.6550238473508383  2.8850249636141054 21.3056969900754147   T   T   T
 11.5306850061185973  5.7700288175480408 21.3011015490919213   T   T   T
  2.8854014368787846  5.7695188261072312 21.2893998789971768   T   T   T
  5.7801214110917440  5.7698237582958329 21.2997227415647465   T   T   T
  8.6552308273632068  5.7703835208732217 21.3060544040699646   T   T   T
  0.0033569262454445  8.6520413717947715 21.3082326098996013   T   T   T
  2.8850208262085784  8.6650554947847898 21.2978981820243796   T   T   T
  5.7669903708466350  8.6521876700922746 21.3074806101756380   T   T   T
  8.6549906855562782  8.6543294189216393 21.3058470646890648   T   T   T
  2.9247468415219875  6.9903249839219219 24.8451542441862578   T   T   T
  2.9370809698681808  5.8759986882520145 24.3588967919546597   T   T   T
  2.9331758884650245  7.8961858320186158 24.1963268579690833   T   T   T
  2.9047040942758482  7.1200749944817527 25.9463890866260201   T   T   T
