HCOOH_Ag110
 1.0000000000000000
    12.2699999999999996    0.0000000000000000    0.0000000000000000
     0.0000000000000000    5.7841334701059592    0.0000000000000000
     0.0000000000000000    0.0000000000000000   34.3381001025794674
 Ag  O   C   H  
  24   2   1   2
Selective dynamics
Cartesian
  2.0449999999999999  1.4460333675264898 15.0000000000000053   F   F   F
  6.1349999999999998  1.4460333675264898 15.0000000000000053   F   F   F
 10.2249999999999979  1.4460333675264898 15.0000000000000053   F   F   F
  2.0449999999999999  4.3381001025794692 15.0000000000000053   F   F   F
  6.1349999999999998  4.3381001025794692 15.0000000000000053   F   F   F
 10.2249999999999979  4.3381001025794692 15.0000000000000053   F   F   F
  0.0000000000000000  0.0000000000000000 16.4460333675264891   F   F   F
  4.0899999999999999  0.0000000000000000 16.4460333675264891   F   F   F
  8.1799999999999997  0.0000000000000000 16.4460333675264891   F   F   F
  0.0000000000000000  2.8920667350529796 16.4460333675264891   F   F   F
  4.0899999999999999  2.8920667350529796 16.4460333675264891   F   F   F
  8.1799999999999997  2.8920667350529796 16.4460333675264891   F   F   F
  2.0443835076026651  1.4441413537952208 17.9851190831978940   T   T   T
  6.1345473805545199  1.4499884094138844 17.9972641915476750   T   T   T
 10.2236579703118071  1.4515890941423915 17.9829256206615931   T   T   T
  2.0431028269302440  4.3391181986853828 17.9844632554313115   T   T   T
  6.1354422164158127  4.3345414138227882 17.9799354006311063   T   T   T
 10.2240267996304510  4.3358363447920798 17.9770594029647341   T   T   T
 12.2655155101586928  5.7832876728646978 19.3559305108438942   T   T   T
  4.0924956220923328  5.7802300177114443 19.3640587334423664   T   T   T
  8.1816862303776414  0.0084487794688604 19.3334633119644259   T   T   T
 12.2692157108042856  2.8926471124926754 19.3564985523093362   T   T   T
  4.0816630989525668  2.8948922311403256 19.3528384230985289   T   T   T
  8.1870053608764177  2.8909223050033965 19.3946043851685275   T   T   T
  6.2208616828854959  1.5511263628208656 22.1364096330273874   T   T   T
  7.7100624338896555  3.2559744094335801 21.8638769858220385   T   T   T
  6.8988522397268914  2.6269487047236391 22.5372420887963081   T   T   T
  6.4847536122531038  1.3617449288288681 21.1971560161672130   T   T   T
  6.6393147647423332  2.8965933981282732 23.5684178254320713   T   T   T
