CH4_Ag111
 1.0000000000000000
     8.6762002051589384    0.0000000000000000    0.0000000000000000
     4.3381001025794710    7.5138097859873962    0.0000000000000000
     0.0000000000000000    0.0000000000000000   37.0840878029567094
 Ag  C   H  
  36   1   4
Selective dynamics
Cartesian
  0.0000000000000000  0.0000000000000000 14.9999999999999982   F   F   F
  2.8920667350529787  0.0000000000000000 14.9999999999999982   F   F   F
  5.7841334701059575  0.0000000000000000 14.9999999999999982   F   F   F
  1.4460333675264903  2.5046032619957987 14.9999999999999982   F   F   F
  4.3381001025794692  2.5046032619957987 14.9999999999999982   F   F   F
  7.2301668376324475  2.5046032619957987 14.9999999999999982   F   F   F
  2.8920667350529805  5.0092065239915975 14.9999999999999982   F   F   F
  5.7841334701059592  5.0092065239915975 14.9999999999999982   F   F   F
  8.6762002051589384  5.0092065239915975 14.9999999999999982   F   F   F
  1.4460333675264898  0.8348677539985995 17.3613626009855686   F   F   F
  4.3381001025794683  0.8348677539985995 17.3613626009855686   F   F   F
  7.2301668376324484  0.8348677539985995 17.3613626009855686   F   F   F
  2.8920667350529801  3.3394710159943979 17.3613626009855686   F   F   F
  5.7841334701059592  3.3394710159943979 17.3613626009855686   F   F   F
  8.6762002051589384  3.3394710159943979 17.3613626009855686   F   F   F
  4.3381001025794710  5.8440742779901944 17.3613626009855686   F   F   F
  7.2301668376324493  5.8440742779901944 17.3613626009855686   F   F   F
 10.1222335726854276  5.8440742779901944 17.3613626009855686   F   F   F
  8.6763205533284840  1.6697097587841312 19.7664738694115272   T   T   T
  2.8920559860780690  1.6698868203235775 19.7668405063508246   T   T   T
  5.7840206207296196  1.6697062638167297 19.7664453731831102   T   T   T
 10.1223887268053456  4.1741919032978583 19.7666125453720056   T   T   T
  4.3379381143950599  4.1741954155201437 19.7665864455841280   T   T   T
  7.2301695207570269  4.1743358160561730 19.7660685247317360   T   T   T
 11.5682567210784075  6.6789647319047596 19.7661417837134827   T   T   T
  5.7841470841357960  6.6790342616844738 19.7662170810610078   T   T   T
  8.6761922635416813  6.6790318734498602 19.7662108336983628   T   T   T
  0.0002953711102558  0.0001600104278991 22.1897654102404083   T   T   T
  2.8920481265746152  0.0002012251703915 22.1889163712799977   T   T   T
  5.7838467210159292  0.0001553788629304 22.1897818641808762   T   T   T
  1.4463713900412032  2.5046521706058682 22.1885782876083937   T   T   T
  4.3377825717157608  2.5046552776282671 22.1885950203106539   T   T   T
  7.2301067715316405  2.5044772995312568 22.1902918857384854   T   T   T
  2.8920546956520705  5.0090473365499202 22.1885694118649255   T   T   T
  5.7836943904328484  5.0090824047742233 22.1899404728328626   T   T   T
  8.6766595392005250  5.0090686424701980 22.1899496648537848   T   T   T
  2.8440264184784558  2.4753899248188400 25.9367091124190630   T   T   T
  2.9001425463394632  3.5053638536108953 25.5692469699055245   T   T   T
  1.9216834009137669  2.0055927303068457 25.5793104735920274   T   T   T
  2.8447759853681323  2.4821867916211300 27.0347059469763664   T   T   T
  3.7094215339179968  1.9079891173956409 25.5785691971691200   T   T   T
