CH3CHO_Cu100
 1.0000000000000000
    10.2106219203337467    0.0000000000000000    0.0000000000000000
     0.0000000000000000   10.2106219203337467    0.0000000000000000
     0.0000000000000000    0.0000000000000000   35.4149999999999991
 Cu  C   O   H  
  64   2   1   4
Selective dynamics
Cartesian
  1.2763277400417183  1.2763277400417183 15.0000000000000000   F   F   F
  3.8289832201251550  1.2763277400417183 15.0000000000000000   F   F   F
  6.3816387002085921  1.2763277400417183 15.0000000000000000   F   F   F
  8.9342941802920279  1.2763277400417183 15.0000000000000000   F   F   F
  1.2763277400417183  3.8289832201251550 15.0000000000000000   F   F   F
  3.8289832201251550  3.8289832201251550 15.0000000000000000   F   F   F
  6.3816387002085921  3.8289832201251550 15.0000000000000000   F   F   F
  8.9342941802920279  3.8289832201251550 15.0000000000000000   F   F   F
  1.2763277400417183  6.3816387002085921 15.0000000000000000   F   F   F
  3.8289832201251550  6.3816387002085921 15.0000000000000000   F   F   F
  6.3816387002085921  6.3816387002085921 15.0000000000000000   F   F   F
  8.9342941802920279  6.3816387002085921 15.0000000000000000   F   F   F
  1.2763277400417183  8.9342941802920279 15.0000000000000000   F   F   F
  3.8289832201251550  8.9342941802920279 15.0000000000000000   F   F   F
  6.3816387002085921  8.9342941802920279 15.0000000000000000   F   F   F
  8.9342941802920279  8.9342941802920279 15.0000000000000000   F   F   F
  0.0000000000000000  0.0000000000000000 16.8049999999999997   F   F   F
  2.5526554800834367  0.0000000000000000 16.8049999999999997   F   F   F
  5.1053109601668734  0.0000000000000000 16.8049999999999997   F   F   F
  7.6579664402503100  0.0000000000000000 16.8049999999999997   F   F   F
  0.0000000000000000  2.5526554800834367 16.8049999999999997   F   F   F
  2.5526554800834367  2.5526554800834367 16.8049999999999997   F   F   F
  5.1053109601668734  2.5526554800834367 16.8049999999999997   F   F   F
  7.6579664402503100  2.5526554800834367 16.8049999999999997   F   F   F
  0.0000000000000000  5.1053109601668734 16.8049999999999997   F   F   F
  2.5526554800834367  5.1053109601668734 16.8049999999999997   F   F   F
  5.1053109601668734  5.1053109601668734 16.8049999999999997   F   F   F
  7.6579664402503100  5.1053109601668734 16.8049999999999997   F   F   F
  0.0000000000000000  7.6579664402503100 16.8049999999999997   F   F   F
  2.5526554800834367  7.6579664402503100 16.8049999999999997   F   F   F
  5.1053109601668734  7.6579664402503100 16.8049999999999997   F   F   F
  7.6579664402503100  7.6579664402503100 16.8049999999999997   F   F   F
  1.2903093267693149  1.2903925718894540 18.6604654439207813   T   T   T
  3.8109887444490842  1.2906726218764160 18.6606549435489875   T   T   T
  6.3813530020875762  1.2709078754229259 18.6278233883387934   T   T   T
  8.9326894047803940  1.2717921300522628 18.6285948270032229   T   T   T
  1.2907473181038376  3.8109760348393165 18.6608307216856595   T   T   T
  3.8083658151174435  3.8084738465633485 18.6629480552937714   T   T   T
  6.3812204099054579  3.8349544553958790 18.6266396299535835   T   T   T
  8.9322286490713587  3.8362572260066519 18.6276702479561713   T   T   T
  1.2710082692964459  6.3811869202354830 18.6279760602525215   T   T   T
  3.8348243214112934  6.3810495078666900 18.6267908585138855   T   T   T
  6.3827438368378431  6.3827387344851685 18.6372395646088194   T   T   T
  8.9318038470181840  6.3836903979520594 18.6364450948197344   T   T   T
  1.2717415879610932  8.9326185378843572 18.6285701516942979   T   T   T
  3.8362337461139928  8.9321013537021976 18.6276575288603468   T   T   T
  6.3837586033878058  8.9316990728163379 18.6363682886849205   T   T   T
  8.9306889115477244  8.9306660814868728 18.6335878580224232   T   T   T
 10.2053431905387040 10.2053425821614852 20.4052215894640234   T   T   T
  2.5560957274364151 10.1660149713389600 20.3921639927523337   T   T   T
  5.1081734296602086 10.2095352244686062 20.4108337801190096   T   T   T
  7.6586481025576312  0.0018899446555405 20.4155594057531040   T   T   T
 10.1659705595196996  2.5562446474620133 20.3924533987649106   T   T   T
  2.5642125328446141  2.5645332066848026 20.5490449032050932   T   T   T
  5.1390425980833081  2.5540992194327847 20.3957547290559020   T   T   T
  7.6526061052492116  2.5527075333172684 20.4127866745118673   T   T   T
 10.2097187868428243  5.1080024591942461 20.4111690841862945   T   T   T
  2.5540955337760063  5.1388421765441690 20.3965465511732944   T   T   T
  5.1030258127080410  5.1028955859405860 20.4123767264595521   T   T   T
  7.6560668355028971  5.1036853470855625 20.4165460073460672   T   T   T
  0.0018910496805830  7.6585515575374261 20.4155672889581155   T   T   T
  2.5527058016469031  7.6524462744241015 20.4128901176731929   T   T   T
  5.1036591857193327  7.6559249463883283 20.4165295459718159   T   T   T
  7.6583116703306038  7.6583074825988913 20.4173916390064321   T   T   T
  2.5983763469211203  2.5357719069806905 24.9174196724976333   T   T   T
  2.8946508874278960  2.8545723458319752 23.5043107706166303   T   T   T
  2.2940789762826448  2.2887669619289146 22.5686762747717538   T   T   T
  2.2909718532396557  3.4451781625726512 25.4534834134338332   T   T   T
  1.8200124722207986  1.7758177221401295 24.9853524810693202   T   T   T
  3.5108672912433114  2.1929577259013895 25.4263354517999716   T   T   T
  3.6682966760437399  3.6123140565082683 23.2789869265517773   T   T   T
