NH3_Pt110
 1.0000000000000000
    11.7599999999999998    0.0000000000000000    0.0000000000000000
     0.0000000000000000    5.5437171645025325    0.0000000000000000
     0.0000000000000000    0.0000000000000000   34.1577878733768969
 Pt  N   H  
  24   1   3
Selective dynamics
Cartesian
  1.9600000000000000  1.3859292911256331 14.9999999999999982   F   F   F
  5.8799999999999999  1.3859292911256331 14.9999999999999982   F   F   F
  9.8000000000000007  1.3859292911256331 14.9999999999999982   F   F   F
  1.9600000000000000  4.1577878733768996 14.9999999999999982   F   F   F
  5.8799999999999999  4.1577878733768996 14.9999999999999982   F   F   F
  9.8000000000000007  4.1577878733768996 14.9999999999999982   F   F   F
  0.0000000000000000  0.0000000000000000 16.3859292911256311   F   F   F
  3.9199999999999999  0.0000000000000000 16.3859292911256311   F   F   F
  7.8399999999999999  0.0000000000000000 16.3859292911256311   F   F   F
  0.0000000000000000  2.7718585822512662 16.3859292911256311   F   F   F
  3.9199999999999999  2.7718585822512662 16.3859292911256311   F   F   F
  7.8399999999999999  2.7718585822512662 16.3859292911256311   F   F   F
  1.9608027427416694  1.3857529944938498 17.8871953017014462   T   T   T
  5.8809053265724200  1.3911474362601228 17.8735904132192935   T   T   T
  9.8012728515534331  1.3841330809014913 17.9026089041719700   T   T   T
  1.9604905127754668  4.1567273476684194 17.8872457285480237   T   T   T
  5.8813799452265236  4.1514376089052369 17.8737777092537939   T   T   T
  9.8011898437070304  4.1626980098197839 17.9027903589790398   T   T   T
  0.0180551589128065  0.0012418846780678 19.1995071454265336   T   T   T
  3.9394468924245296  5.5421738315550009 19.1682044935460745   T   T   T
  7.8254738986387187  0.0015337850851839 19.1882324251660528   T   T   T
 11.7454259410937851  2.7730269202275002 19.1904770297785454   T   T   T
  3.9874193809407976  2.7708675067868782 19.2437842453423933   T   T   T
  7.8284432667222621  2.7730477463986394 19.1847632489369175   T   T   T
  2.9288658643742447  2.7722457411012114 21.0533734848641849   T   T   T
  1.9217218466620090  2.7708069826704009 20.8140217818192603   T   T   T
  3.1545279609932706  1.9305870157768688 21.5884338663394537   T   T   T
  3.1513111304741428  3.6140015931400353 21.5896633283491468   T   T   T
