CH3COOH_Ir111
 1.0000000000000000
    10.8611601590253706    0.0000000000000000    0.0000000000000000
     0.0000000000000000    9.4060406122874021    0.0000000000000000
     0.0000000000000000    0.0000000000000000   36.6510751010644924
 Ir  C   O   H  
  64   2   2   4
Selective dynamics
Cartesian
  0.0000000000000000  0.0000000000000000 15.0000000000000018   F   F   F
  2.7152900397563422  0.0000000000000000 15.0000000000000018   F   F   F
  5.4305800795126844  0.0000000000000000 15.0000000000000018   F   F   F
  8.1458701192690270  0.0000000000000000 15.0000000000000018   F   F   F
  1.3576450198781711  2.3515101530718505 15.0000000000000018   F   F   F
  4.0729350596345135  2.3515101530718505 15.0000000000000018   F   F   F
  6.7882250993908571  2.3515101530718505 15.0000000000000018   F   F   F
  9.5035151391471988  2.3515101530718505 15.0000000000000018   F   F   F
  0.0000000000000000  4.7030203061437010 15.0000000000000018   F   F   F
  2.7152900397563422  4.7030203061437010 15.0000000000000018   F   F   F
  5.4305800795126844  4.7030203061437010 15.0000000000000018   F   F   F
  8.1458701192690270  4.7030203061437010 15.0000000000000018   F   F   F
  1.3576450198781711  7.0545304592155516 15.0000000000000018   F   F   F
  4.0729350596345135  7.0545304592155516 15.0000000000000018   F   F   F
  6.7882250993908571  7.0545304592155516 15.0000000000000018   F   F   F
  9.5035151391471988  7.0545304592155516 15.0000000000000018   F   F   F
  1.3576450198781711  0.7838367176906168 17.2170250336881665   F   F   F
  4.0729350596345135  0.7838367176906168 17.2170250336881665   F   F   F
  6.7882250993908571  0.7838367176906168 17.2170250336881665   F   F   F
  9.5035151391471988  0.7838367176906168 17.2170250336881665   F   F   F
  0.0000000000000000  3.1353468707624672 17.2170250336881665   F   F   F
  2.7152900397563422  3.1353468707624672 17.2170250336881665   F   F   F
  5.4305800795126844  3.1353468707624672 17.2170250336881665   F   F   F
  8.1458701192690270  3.1353468707624672 17.2170250336881665   F   F   F
  1.3576450198781711  5.4868570238343182 17.2170250336881665   F   F   F
  4.0729350596345135  5.4868570238343182 17.2170250336881665   F   F   F
  6.7882250993908571  5.4868570238343182 17.2170250336881665   F   F   F
  9.5035151391471988  5.4868570238343182 17.2170250336881665   F   F   F
  0.0000000000000000  7.8383671769061687 17.2170250336881665   F   F   F
  2.7152900397563422  7.8383671769061687 17.2170250336881665   F   F   F
  5.4305800795126844  7.8383671769061687 17.2170250336881665   F   F   F
  8.1458701192690270  7.8383671769061687 17.2170250336881665   F   F   F
  0.0071022447910571  1.5679345254435997 19.4469335565754875   T   T   T
  2.7196860287455826  1.5708926520908042 19.4429328961818406   T   T   T
  5.4364122253066540  1.5701750696961549 19.4445022602089530   T   T   T
  8.1558402661152751  1.5676406504511187 19.4427465381342053   T   T   T
  1.3670302846090709  3.9177596360686437 19.4429766521425123   T   T   T
  4.0887341533741992  3.9266278104722829 19.4909228907950194   T   T   T
  6.7871206873016385  3.9205666481239101 19.4668767669376983   T   T   T
  9.5108617187107818  3.9156957393175014 19.4424848002536201   T   T   T
  0.0059035747326412  6.2694243541461017 19.4471426667224918   T   T   T
  2.7235309537596515  6.2681790147949625 19.4498611320425532   T   T   T
  5.4338438762318848  6.2592529455041079 19.4785622519116686   T   T   T
  8.1513614300929635  6.2704151432654198 19.4421309991433340   T   T   T
  1.3643054069531422  8.6198068222692505 19.4458600812502773   T   T   T
  4.0790758962276561  8.6220616920632924 19.4411981905714129   T   T   T
  6.7926291188318260  8.6241464427590042 19.4425583922173075   T   T   T
  9.5104682985046587  8.6209145415474886 19.4440875360987562   T   T   T
  0.0091458764700631  9.4039148888176527 21.6604295208419657   T   T   T
  2.7193761856685406  9.4054570200069190 21.6571939679636856   T   T   T
  5.4390225626893498  0.0016371357916602 21.6551519016657750   T   T   T
  8.1595572647090560  9.4045904442125803 21.6596772956946673   T   T   T
  1.3668525263798028  2.3506904632372354 21.6574549203590507   T   T   T
  4.0789176005768928  2.3312955250438296 21.6520838092089463   T   T   T
  6.8062161119728319  2.3372724730091448 21.6479521327925681   T   T   T
  9.5126979026144607  2.3500046873465328 21.6580891088197305   T   T   T
  0.0104762085355107  4.7026845106127588 21.6580541666058828   T   T   T
  2.7120548942374678  4.7043206427602948 21.6681025623690466   T   T   T
  5.4375877979136824  4.7053414911779052 21.7346015030631428   T   T   T
  8.1738021870819360  4.7043389851416206 21.6369514185063139   T   T   T
  1.3668979579194087  7.0536568921260221 21.6633910207926021   T   T   T
  4.0742810331293295  7.0719040961730126 21.6496637957007714   T   T   T
  6.8097185846129831  7.0675844687259923 21.6470421171560403   T   T   T
  9.5120047636453471  7.0550243275912532 21.6604940987721335   T   T   T
  5.5251459173103665  4.7413261285186827 26.2273780312862606   T   T   T
  4.9641346007849227  4.7369171744772558 24.8430071385589066   T   T   T
  5.7460804916921839  4.7180041239781563 23.8537274070093730   T   T   T
  3.6547794267985685  4.7549848741271612 24.7566573901378852   T   T   T
  6.6119489760005203  4.7051540694175431 26.2005503269818298   T   T   T
  5.1293515887084586  3.8868019363333430 26.7851557960526527   T   T   T
  5.1906570992671819  5.6430271468742870 26.7503019895123231   T   T   T
  3.3689836941857965  4.7541000360829244 23.7579210780204342   T   T   T
