CH3COOH_Ir110
 1.0000000000000000
    11.5199999999999996    0.0000000000000000    0.0000000000000000
     0.0000000000000000    5.4305800795126853    0.0000000000000000
     0.0000000000000000    0.0000000000000000   34.0729350596345171
 Ir  C   O   H  
  24   2   2   4
Selective dynamics
Cartesian
  1.9199999999999999  1.3576450198781711 15.0000000000000018   F   F   F
  5.7599999999999989  1.3576450198781711 15.0000000000000018   F   F   F
  9.5999999999999996  1.3576450198781711 15.0000000000000018   F   F   F
  1.9199999999999999  4.0729350596345135 15.0000000000000018   F   F   F
  5.7599999999999989  4.0729350596345135 15.0000000000000018   F   F   F
  9.5999999999999996  4.0729350596345135 15.0000000000000018   F   F   F
  0.0000000000000000  0.0000000000000000 16.3576450198781735   F   F   F
  3.8399999999999999  0.0000000000000000 16.3576450198781735   F   F   F
  7.6799999999999997  0.0000000000000000 16.3576450198781735   F   F   F
  0.0000000000000000  2.7152900397563422 16.3576450198781735   F   F   F
  3.8399999999999999  2.7152900397563422 16.3576450198781735   F   F   F
  7.6799999999999997  2.7152900397563422 16.3576450198781735   F   F   F
  1.9223120252365469  1.3481937268113791 17.7661502248493974   T   T   T
  5.7629489471895639  1.3575108476965065 17.7747918691118478   T   T   T
  9.6063929909899990  1.3531685104940281 17.7838851581627573   T   T   T
  1.9201482593735846  4.0721742300391943 17.7749497305666715   T   T   T
  5.7728811289529256  4.0713117564616033 17.7699237146690940   T   T   T
  9.5986800106037524  4.0744439130243837 17.7775354648570882   T   T   T
  0.0028427653102902  5.4234848258340325 19.0077738751167189   T   T   T
  3.8456504849989006  5.4230136163033942 18.9653997242745653   T   T   T
  7.6830219192156770  0.0009161363307758 19.0111455268700915   T   T   T
  0.0114285462500479  2.7138421796029104 19.0012340631155432   T   T   T
  3.8326461442731383  2.7114544299247498 19.0157076382264769   T   T   T
  7.6825459362211488  2.7130297535973060 19.0005897576523495   T   T   T
  3.7097709183944678  2.1408089046829470 23.4314963570233203   T   T   T
  3.2537848604319133  2.2883981582844504 22.0233093523617214   T   T   T
  4.0268242345209613  2.7239907677837598 21.1295882294847388   T   T   T
  2.0013527504055340  1.9319955421836703 21.8150757261687112   T   T   T
  2.9795914808478217  2.5993699453061079 24.1056770137229144   T   T   T
  4.6978697984225599  2.5788148937007387 23.5668820059823148   T   T   T
  3.7408414375706882  1.0747300380208131 23.6895156087114422   T   T   T
  1.7500907104641978  2.0922186045473206 20.8494637140469905   T   T   T
