NO_Ag100
 1.0000000000000000
     8.6762002051589384    0.0000000000000000    0.0000000000000000
     0.0000000000000000    8.6762002051589384    0.0000000000000000
     0.0000000000000000    0.0000000000000000   36.1349999999999980
 Ag  N   O  
  36   1   1
Selective dynamics
Cartesian
  1.4460333675264894  1.4460333675264894 15.0000000000000000   F   F   F
  4.3381001025794692  1.4460333675264894 15.0000000000000000   F   F   F
  7.2301668376324475  1.4460333675264894 15.0000000000000000   F   F   F
  1.4460333675264894  4.3381001025794692 15.0000000000000000   F   F   F
  4.3381001025794692  4.3381001025794692 15.0000000000000000   F   F   F
  7.2301668376324475  4.3381001025794692 15.0000000000000000   F   F   F
  1.4460333675264894  7.2301668376324475 15.0000000000000000   F   F   F
  4.3381001025794692  7.2301668376324475 15.0000000000000000   F   F   F
  7.2301668376324475  7.2301668376324475 15.0000000000000000   F   F   F
  0.0000000000000000  0.0000000000000000 17.0450000000000017   F   F   F
  2.8920667350529787  0.0000000000000000 17.0450000000000017   F   F   F
  5.7841334701059575  0.0000000000000000 17.0450000000000017   F   F   F
  0.0000000000000000  2.8920667350529787 17.0450000000000017   F   F   F
  2.8920667350529787  2.8920667350529787 17.0450000000000017   F   F   F
  5.7841334701059575  2.8920667350529787 17.0450000000000017   F   F   F
  0.0000000000000000  5.7841334701059575 17.0450000000000017   F   F   F
  2.8920667350529787  5.7841334701059575 17.0450000000000017   F   F   F
  5.7841334701059575  5.7841334701059575 17.0450000000000017   F   F   F
  1.4398251753930986  1.4534561756656237 19.1751096266262984   T   T   T
  4.3424537937581871  1.4358453214527582 19.1493229960472178   T   T   T
  7.2348669303505213  1.4511834367064353 19.1701104282575621   T   T   T
  1.4366324727050535  4.3375333457029157 19.1824154283889463   T   T   T
  4.3384502195069974  4.3385190158760256 19.1617023865717613   T   T   T
  7.2375272801722872  4.3387087335201215 19.1725865701306937   T   T   T
  1.4398114781057563  7.2217375824299106 19.1751777456279946   T   T   T
  4.3422703663874955  7.2396296758349958 19.1496264783644534   T   T   T
  7.2349920355610475  7.2243082037082971 19.1705069598523359   T   T   T
  8.6744543342578755  8.6737758074079530 21.2495110163859842   T   T   T
  2.8905305738913682  8.6751159443815542 21.2476236793458355   T   T   T
  5.7868010523896194  8.6758456358850697 21.2451475397071050   T   T   T
  8.6599542406615129  2.8606969964799038 21.2875566437099124   T   T   T
  2.9196776625511758  2.8748475633695629 21.2223171480347119   T   T   T
  5.7744242159299652  2.8872672852933250 21.2421223300994306   T   T   T
  8.6646439800862733  5.8103891664685445 21.2917575819435747   T   T   T
  2.9180112482212577  5.7999340996451112 21.2242360622054598   T   T   T
  5.7757453928450211  5.7886730307319274 21.2421664176687877   T   T   T
  0.2497361858881972  4.2944546574150895 23.2541444577464240   T   T   T
  1.2919836666162039  4.2770924467766553 23.8274075631472257   T   T   T
