NO_Pt110
 1.0000000000000000
    11.7599999999999998    0.0000000000000000    0.0000000000000000
     0.0000000000000000    5.5437171645025325    0.0000000000000000
     0.0000000000000000    0.0000000000000000   34.1577878733768969
 Pt  N   O  
  24   1   1
Selective dynamics
Cartesian
  1.9600000000000000  1.3859292911256331 14.9999999999999982   F   F   F
  5.8799999999999999  1.3859292911256331 14.9999999999999982   F   F   F
  9.8000000000000007  1.3859292911256331 14.9999999999999982   F   F   F
  1.9600000000000000  4.1577878733768996 14.9999999999999982   F   F   F
  5.8799999999999999  4.1577878733768996 14.9999999999999982   F   F   F
  9.8000000000000007  4.1577878733768996 14.9999999999999982   F   F   F
  0.0000000000000000  0.0000000000000000 16.3859292911256311   F   F   F
  3.9199999999999999  0.0000000000000000 16.3859292911256311   F   F   F
  7.8399999999999999  0.0000000000000000 16.3859292911256311   F   F   F
  0.0000000000000000  2.7718585822512662 16.3859292911256311   F   F   F
  3.9199999999999999  2.7718585822512662 16.3859292911256311   F   F   F
  7.8399999999999999  2.7718585822512662 16.3859292911256311   F   F   F
  1.9578242869539508  1.3967790608537847 17.8667315265451805   T   T   T
  5.8875510399994475  1.3960126706648632 17.8738383265220868   T   T   T
  9.8075748015269717  1.3975322336157805 17.9041581989387559   T   T   T
  1.9690785099308388  4.1599983195488859 17.8847617734177327   T   T   T
  5.8789008113902197  4.1623774947690242 17.8860180526299537   T   T   T
  9.8072649144244757  4.1766483384988202 17.9068850210035038   T   T   T
  0.0235236928979047  0.0134272521444179 19.1981035992866751   T   T   T
  3.9166352482322555  0.0145267519300945 19.1281705487542801   T   T   T
  7.8327848497716754  0.0182300653688587 19.1940150090439587   T   T   T
  0.0199446363944998  2.7876625228157770 19.1815100133109020   T   T   T
  3.9346953526313988  2.7976565981265225 19.3042749419437989   T   T   T
  7.8414520266777377  2.7904968135424069 19.1716826650474594   T   T   T
  4.1377136681374003  2.8476023700356006 21.1440932985638099   T   T   T
  4.5172114474097089  3.6644086110953746 21.9142646347698147   T   T   T
