CO2_Rh100
 1.0000000000000000
     8.0673812665573212    0.0000000000000000    0.0000000000000000
     0.0000000000000000    8.0673812665573212    0.0000000000000000
     0.0000000000000000    0.0000000000000000   35.7044999999999959
 Rh  C   O  
  36   1   2
Selective dynamics
Cartesian
  1.3445635444262201  1.3445635444262201 14.9999999999999964   F   F   F
  4.0336906332786597  1.3445635444262201 14.9999999999999964   F   F   F
  6.7228177221311043  1.3445635444262201 14.9999999999999964   F   F   F
  1.3445635444262201  4.0336906332786597 14.9999999999999964   F   F   F
  4.0336906332786597  4.0336906332786597 14.9999999999999964   F   F   F
  6.7228177221311043  4.0336906332786597 14.9999999999999964   F   F   F
  1.3445635444262201  6.7228177221311043 14.9999999999999964   F   F   F
  4.0336906332786597  6.7228177221311043 14.9999999999999964   F   F   F
  6.7228177221311043  6.7228177221311043 14.9999999999999964   F   F   F
  0.0000000000000000  0.0000000000000000 16.9014999999999986   F   F   F
  2.6891270888524401  0.0000000000000000 16.9014999999999986   F   F   F
  5.3782541777048802  0.0000000000000000 16.9014999999999986   F   F   F
  0.0000000000000000  2.6891270888524401 16.9014999999999986   F   F   F
  2.6891270888524401  2.6891270888524401 16.9014999999999986   F   F   F
  5.3782541777048802  2.6891270888524401 16.9014999999999986   F   F   F
  0.0000000000000000  5.3782541777048802 16.9014999999999986   F   F   F
  2.6891270888524401  5.3782541777048802 16.9014999999999986   F   F   F
  5.3782541777048802  5.3782541777048802 16.9014999999999986   F   F   F
  1.3441340447317109  1.3430188246241319 18.8392902450154764   T   T   T
  4.0337209491111210  1.3439217196089162 18.8408506569890690   T   T   T
  6.7232543560742686  1.3430601372897593 18.8393469863988230   T   T   T
  1.3443152134983580  4.0351431859964366 18.8395855060071113   T   T   T
  4.0336674226255242  4.0342281470972896 18.8408287268316208   T   T   T
  6.7230596721699367  4.0351925839068103 18.8395073153631323   T   T   T
  1.3435765007540077  6.7227643436260660 18.8373088229304102   T   T   T
  4.0336952027839779  6.7229719133324055 18.8390108464472199   T   T   T
  6.7238041326390583  6.7227037476895921 18.8373092681491450   T   T   T
  8.0673445802396468  0.0009630512464411 20.6887788666432861   T   T   T
  2.6901949870374646  0.0005098239153505 20.6897653645177293   T   T   T
  5.3772328878450120  0.0005069680347838 20.6896869923495039   T   T   T
  8.0673527291657869  2.6891326110363636 20.6906076415802076   T   T   T
  2.6889141968900034  2.6893152070929092 20.6846044588501705   T   T   T
  5.3784627044403930  2.6891600925259715 20.6845544018212593   T   T   T
  0.0000621662706679  5.3773942913713819 20.6890193907176503   T   T   T
  2.6897852092821100  5.3784665992739837 20.6894464601934480   T   T   T
  5.3775157380994951  5.3784240815774567 20.6896139489775059   T   T   T
  4.0278657773177775  2.8627516408607718 23.8192305238233324   T   T   T
  4.0539896919381091  4.0407212626438653 23.8082565543283806   T   T   T
  4.0018076593666985  1.6888749319733323 23.9032431979039330   T   T   T
