NH3_Ir111
 1.0000000000000000
    10.8611601590253706    0.0000000000000000    0.0000000000000000
     0.0000000000000000    9.4060406122874021    0.0000000000000000
     0.0000000000000000    0.0000000000000000   36.6510751010644924
 Ir  N   H  
  64   1   3
Selective dynamics
Cartesian
  0.0000000000000000  0.0000000000000000 15.0000000000000018   F   F   F
  2.7152900397563422  0.0000000000000000 15.0000000000000018   F   F   F
  5.4305800795126844  0.0000000000000000 15.0000000000000018   F   F   F
  8.1458701192690270  0.0000000000000000 15.0000000000000018   F   F   F
  1.3576450198781711  2.3515101530718505 15.0000000000000018   F   F   F
  4.0729350596345135  2.3515101530718505 15.0000000000000018   F   F   F
  6.7882250993908571  2.3515101530718505 15.0000000000000018   F   F   F
  9.5035151391471988  2.3515101530718505 15.0000000000000018   F   F   F
  0.0000000000000000  4.7030203061437010 15.0000000000000018   F   F   F
  2.7152900397563422  4.7030203061437010 15.0000000000000018   F   F   F
  5.4305800795126844  4.7030203061437010 15.0000000000000018   F   F   F
  8.1458701192690270  4.7030203061437010 15.0000000000000018   F   F   F
  1.3576450198781711  7.0545304592155516 15.0000000000000018   F   F   F
  4.0729350596345135  7.0545304592155516 15.0000000000000018   F   F   F
  6.7882250993908571  7.0545304592155516 15.0000000000000018   F   F   F
  9.5035151391471988  7.0545304592155516 15.0000000000000018   F   F   F
  1.3576450198781711  0.7838367176906168 17.2170250336881665   F   F   F
  4.0729350596345135  0.7838367176906168 17.2170250336881665   F   F   F
  6.7882250993908571  0.7838367176906168 17.2170250336881665   F   F   F
  9.5035151391471988  0.7838367176906168 17.2170250336881665   F   F   F
  0.0000000000000000  3.1353468707624672 17.2170250336881665   F   F   F
  2.7152900397563422  3.1353468707624672 17.2170250336881665   F   F   F
  5.4305800795126844  3.1353468707624672 17.2170250336881665   F   F   F
  8.1458701192690270  3.1353468707624672 17.2170250336881665   F   F   F
  1.3576450198781711  5.4868570238343182 17.2170250336881665   F   F   F
  4.0729350596345135  5.4868570238343182 17.2170250336881665   F   F   F
  6.7882250993908571  5.4868570238343182 17.2170250336881665   F   F   F
  9.5035151391471988  5.4868570238343182 17.2170250336881665   F   F   F
  0.0000000000000000  7.8383671769061687 17.2170250336881665   F   F   F
  2.7152900397563422  7.8383671769061687 17.2170250336881665   F   F   F
  5.4305800795126844  7.8383671769061687 17.2170250336881665   F   F   F
  8.1458701192690270  7.8383671769061687 17.2170250336881665   F   F   F
  0.0003413992166110  1.5645450886721701 19.4459165417786330   T   T   T
  2.7181369830220983  1.5654848007447026 19.4414405700798163   T   T   T
  5.4308514148771012  1.5645750270850636 19.4429032724215851   T   T   T
  8.1482784728914606  1.5646279757481241 19.4463876046871817   T   T   T
  1.3559999346648379  3.9178726376442561 19.4414962247740633   T   T   T
  4.0748179905543731  3.9182909069628615 19.4448343439794833   T   T   T
  6.7922183224434693  3.9178726672305570 19.4430898441451703   T   T   T
  9.5048421486835721  3.9148873409741389 19.4491643448125906   T   T   T
  0.0033659592061917  6.2643875588297524 19.4434814619007881   T   T   T
  2.7262760946032643  6.2725643902345691 19.4755621662880500   T   T   T
  5.4236983658617186  6.2731956996999179 19.4751365980237772   T   T   T
  8.1471269314027701  6.2637968242574757 19.4422137104971782   T   T   T
  1.3591553139745938  8.6184408127556775 19.4458087804963746   T   T   T
  4.0742261984896286  8.6076547683533775 19.4759877023700447   T   T   T
  6.7894416287440551  8.6191447173756934 19.4462670482085720   T   T   T
  9.5050785635808381  8.6181809774813640 19.4457956149589464   T   T   T
  0.0064224927978168  9.3999155471518705 21.6598290068388870   T   T   T
  2.7064920019418350  0.0118657905172644 21.6549923458478339   T   T   T
  5.4431076187392025  0.0096093944428384 21.6566834461818054   T   T   T
  8.1449330240370958  9.3998410288003154 21.6608293366469411   T   T   T
  1.3571624120093588  2.3453381214775226 21.6606943335941082   T   T   T
  4.0747554703798583  2.3484823710777332 21.6553605893545473   T   T   T
  6.7946156005250291  2.3445417532704522 21.6611121477689252   T   T   T
  9.5059716737073874  2.3443433100735618 21.6642274066812277   T   T   T
  0.0053692735847765  4.6980350586173669 21.6605966516641004   T   T   T
  2.7047378735142571  4.6792785855022476 21.6546487741222222   T   T   T
  5.4439203197149713  4.6811128625761036 21.6559421742710576   T   T   T
  8.1463755941837057  4.6985349309229685 21.6608740764263104   T   T   T
  1.3413765585402364  7.0507183380395606 21.6574296342953332   T   T   T
  4.0764467516771408  7.0450917642492836 21.7291066826997792   T   T   T
  6.8132168474899784  7.0499170578810677 21.6554093439036563   T   T   T
  9.5053459269247682  7.0518609164377635 21.6602055462370586   T   T   T
  4.0846089478934573  7.0202784259023572 23.8690754269152485   T   T   T
  5.0009710124988196  7.3502119060462467 24.1920898940046136   T   T   T
  3.3410144785746723  7.6460755750246205 24.1975699446173458   T   T   T
  3.9162232386727811  6.0610682993828515 24.1940641892909447   T   T   T
