H2S_Pt110
 1.0000000000000000
    11.7599999999999998    0.0000000000000000    0.0000000000000000
     0.0000000000000000    5.5437171645025325    0.0000000000000000
     0.0000000000000000    0.0000000000000000   34.1577878733768969
 Pt  S   H  
  24   1   2
Selective dynamics
Cartesian
  1.9600000000000000  1.3859292911256331 14.9999999999999982   F   F   F
  5.8799999999999999  1.3859292911256331 14.9999999999999982   F   F   F
  9.8000000000000007  1.3859292911256331 14.9999999999999982   F   F   F
  1.9600000000000000  4.1577878733768996 14.9999999999999982   F   F   F
  5.8799999999999999  4.1577878733768996 14.9999999999999982   F   F   F
  9.8000000000000007  4.1577878733768996 14.9999999999999982   F   F   F
  0.0000000000000000  0.0000000000000000 16.3859292911256311   F   F   F
  3.9199999999999999  0.0000000000000000 16.3859292911256311   F   F   F
  7.8399999999999999  0.0000000000000000 16.3859292911256311   F   F   F
  0.0000000000000000  2.7718585822512662 16.3859292911256311   F   F   F
  3.9199999999999999  2.7718585822512662 16.3859292911256311   F   F   F
  7.8399999999999999  2.7718585822512662 16.3859292911256311   F   F   F
  1.9808898387967273  1.3863617310858114 17.8662911252839898   T   T   T
  5.8827375792318195  1.3824937213082471 17.8707305339985112   T   T   T
  9.7981186490439924  1.3781821911475201 17.8973783190517182   T   T   T
  1.9541760043035501  4.1594674332304740 17.8532856692457962   T   T   T
  5.8800797955501594  4.1589046502774289 17.8514509831025414   T   T   T
  9.7981612630346628  4.1592775331159002 17.8958868830145832   T   T   T
  0.0191786999840390  0.0024499844863493 19.1802290299625007   T   T   T
  3.8966383619702007  0.0345668886943631 19.2800743531553564   T   T   T
  7.8240777007151010  5.5388008840480598 19.1872698890821809   T   T   T
  0.0190752483525261  2.7662442703471020 19.1729548588608765   T   T   T
  3.8917963498313792  2.7481333875803662 19.2751153792713623   T   T   T
  7.8338777739686556  2.7628329271004102 19.2176280075598918   T   T   T
  4.2654406567982655  4.1615661012361542 21.0449866671637089   T   T   T
  5.6360411396251058  4.1514888876737119 21.1119654458411574   T   T   T
  7.6875811197906785  2.7139117438691733 20.7673373218996886   T   T   T
