CO2_Pt111
 1.0000000000000000
    11.0874343290050650    0.0000000000000000    0.0000000000000000
     0.0000000000000000    9.6019997917100568    0.0000000000000000
     0.0000000000000000    0.0000000000000000   36.7896391656699961
 Pt  O   C  
  64   2   1
Selective dynamics
Cartesian
  0.0000000000000000  0.0000000000000000 15.0000000000000053   F   F   F
  2.7718585822512662  0.0000000000000000 15.0000000000000053   F   F   F
  5.5437171645025325  0.0000000000000000 15.0000000000000053   F   F   F
  8.3155757467537992  0.0000000000000000 15.0000000000000053   F   F   F
  1.3859292911256331  2.4004999479275142 15.0000000000000053   F   F   F
  4.1577878733768996  2.4004999479275142 15.0000000000000053   F   F   F
  6.9296464556281654  2.4004999479275142 15.0000000000000053   F   F   F
  9.7015050378794339  2.4004999479275142 15.0000000000000053   F   F   F
  0.0000000000000000  4.8009998958550284 15.0000000000000053   F   F   F
  2.7718585822512662  4.8009998958550284 15.0000000000000053   F   F   F
  5.5437171645025325  4.8009998958550284 15.0000000000000053   F   F   F
  8.3155757467537992  4.8009998958550284 15.0000000000000053   F   F   F
  1.3859292911256331  7.2014998437825426 15.0000000000000053   F   F   F
  4.1577878733768996  7.2014998437825426 15.0000000000000053   F   F   F
  6.9296464556281654  7.2014998437825426 15.0000000000000053   F   F   F
  9.7015050378794339  7.2014998437825426 15.0000000000000053   F   F   F
  1.3859292911256331  0.8001666493091714 17.2632130552233356   F   F   F
  4.1577878733768996  0.8001666493091714 17.2632130552233356   F   F   F
  6.9296464556281654  0.8001666493091714 17.2632130552233356   F   F   F
  9.7015050378794339  0.8001666493091714 17.2632130552233356   F   F   F
  0.0000000000000000  3.2006665972366855 17.2632130552233356   F   F   F
  2.7718585822512662  3.2006665972366855 17.2632130552233356   F   F   F
  5.5437171645025325  3.2006665972366855 17.2632130552233356   F   F   F
  8.3155757467537992  3.2006665972366855 17.2632130552233356   F   F   F
  1.3859292911256331  5.6011665451642001 17.2632130552233356   F   F   F
  4.1577878733768996  5.6011665451642001 17.2632130552233356   F   F   F
  6.9296464556281654  5.6011665451642001 17.2632130552233356   F   F   F
  9.7015050378794339  5.6011665451642001 17.2632130552233356   F   F   F
  0.0000000000000000  8.0016664930917152 17.2632130552233356   F   F   F
  2.7718585822512662  8.0016664930917152 17.2632130552233356   F   F   F
  5.5437171645025325  8.0016664930917152 17.2632130552233356   F   F   F
  8.3155757467537992  8.0016664930917152 17.2632130552233356   F   F   F
 11.0874283158885447  1.6002278859162273 19.5594156567464985   T   T   T
  2.7720738143043495  1.6004592303676393 19.5602587997277091   T   T   T
  5.5435619865570063  1.6009608797014641 19.5630805124369225   T   T   T
  8.3154200986115541  1.6004295486734446 19.5609733872582758   T   T   T
  1.3858208958539144  4.0010194917851596 19.5595617842970846   T   T   T
  4.1580749296068475  4.0002678997043377 19.5628822655767074   T   T   T
  6.9301829312919834  4.0010666074591663 19.5632694182373541   T   T   T
  9.7011673464638228  4.0010767684565129 19.5604671090703768   T   T   T
  0.0000329029770612  6.4014718007196239 19.5591599489013461   T   T   T
  2.7719594786719379  6.4013220176325074 19.5595660897024608   T   T   T
  5.5438051340821355  6.4009555094381243 19.5605782610630392   T   T   T
  8.3154174033665633  6.4008820110857938 19.5602946389802916   T   T   T
  1.3859245039125270  8.8018194715156337 19.5591430406968243   T   T   T
  4.1580607708933144  8.8016296021721541 19.5595472915575286   T   T   T
  6.9295788570938699  8.8018336577294161 19.5597938643729705   T   T   T
  9.7012562903071107  8.8019135291957085 19.5592865774495053   T   T   T
 11.0873655650374889  9.6016682134807230 21.9124727299937625   T   T   T
  2.7722241134101280  0.0005421607650380 21.9121331810763920   T   T   T
  5.5442017117440372  0.0003767475813874 21.9111952056554244   T   T   T
  8.3146433286443244  0.0016095730183091 21.9130964653300566   T   T   T
  1.3863576527430217  2.4008147688124302 21.9120093828775566   T   T   T
  4.1567411043388374  2.3998994967719476 21.9089904993082776   T   T   T
  6.9304959823792256  2.3994473812181676 21.9083698149333337   T   T   T
  9.6998842389901210  2.4002219350017708 21.9115415813557703   T   T   T
 11.0872406387529203  4.8010620880303270 21.9121059570784169   T   T   T
  2.7729474835600172  4.8015030423094505 21.9115750736624442   T   T   T
  5.5430548387917185  4.8022248440227502 21.9093525542521270   T   T   T
  8.3161646615291218  4.8013361652157487 21.9100418509630082   T   T   T
  1.3858347811184606  7.2019411007194716 21.9124927768988123   T   T   T
  4.1585511908548281  7.2000366946662409 21.9128800112267861   T   T   T
  6.9292319158997504  7.2000734938280573 21.9115170957627647   T   T   T
  9.7015723709556276  7.2009405711747529 21.9122574944235424   T   T   T
  7.1922269779988985  3.9909947336358904 25.3027044263003908   T   T   T
  5.1553945569227526  2.8177120042860526 25.2169416260360570   T   T   T
  6.1754100573603443  3.4042701051510122 25.2298173238466106   T   T   T
