CH3_Cu100
 1.0000000000000000
    10.2106219203337467    0.0000000000000000    0.0000000000000000
     0.0000000000000000   10.2106219203337467    0.0000000000000000
     0.0000000000000000    0.0000000000000000   35.4149999999999991
 Cu  C   H  
  64   1   3
Selective dynamics
Cartesian
  1.2763277400417183  1.2763277400417183 15.0000000000000000   F   F   F
  3.8289832201251550  1.2763277400417183 15.0000000000000000   F   F   F
  6.3816387002085921  1.2763277400417183 15.0000000000000000   F   F   F
  8.9342941802920279  1.2763277400417183 15.0000000000000000   F   F   F
  1.2763277400417183  3.8289832201251550 15.0000000000000000   F   F   F
  3.8289832201251550  3.8289832201251550 15.0000000000000000   F   F   F
  6.3816387002085921  3.8289832201251550 15.0000000000000000   F   F   F
  8.9342941802920279  3.8289832201251550 15.0000000000000000   F   F   F
  1.2763277400417183  6.3816387002085921 15.0000000000000000   F   F   F
  3.8289832201251550  6.3816387002085921 15.0000000000000000   F   F   F
  6.3816387002085921  6.3816387002085921 15.0000000000000000   F   F   F
  8.9342941802920279  6.3816387002085921 15.0000000000000000   F   F   F
  1.2763277400417183  8.9342941802920279 15.0000000000000000   F   F   F
  3.8289832201251550  8.9342941802920279 15.0000000000000000   F   F   F
  6.3816387002085921  8.9342941802920279 15.0000000000000000   F   F   F
  8.9342941802920279  8.9342941802920279 15.0000000000000000   F   F   F
  0.0000000000000000  0.0000000000000000 16.8049999999999997   F   F   F
  2.5526554800834367  0.0000000000000000 16.8049999999999997   F   F   F
  5.1053109601668734  0.0000000000000000 16.8049999999999997   F   F   F
  7.6579664402503100  0.0000000000000000 16.8049999999999997   F   F   F
  0.0000000000000000  2.5526554800834367 16.8049999999999997   F   F   F
  2.5526554800834367  2.5526554800834367 16.8049999999999997   F   F   F
  5.1053109601668734  2.5526554800834367 16.8049999999999997   F   F   F
  7.6579664402503100  2.5526554800834367 16.8049999999999997   F   F   F
  0.0000000000000000  5.1053109601668734 16.8049999999999997   F   F   F
  2.5526554800834367  5.1053109601668734 16.8049999999999997   F   F   F
  5.1053109601668734  5.1053109601668734 16.8049999999999997   F   F   F
  7.6579664402503100  5.1053109601668734 16.8049999999999997   F   F   F
  0.0000000000000000  7.6579664402503100 16.8049999999999997   F   F   F
  2.5526554800834367  7.6579664402503100 16.8049999999999997   F   F   F
  5.1053109601668734  7.6579664402503100 16.8049999999999997   F   F   F
  7.6579664402503100  7.6579664402503100 16.8049999999999997   F   F   F
  1.2724683711760045  1.2728400254572578 18.6338108996960514   T   T   T
  3.8270486679944997  1.2824704444282606 18.6324382913244015   T   T   T
  6.3832026929560604  1.2828533159119819 18.6326019692748552   T   T   T
  8.9383445735254874  1.2724599833405066 18.6333423710168056   T   T   T
  1.2815003387197121  3.8269978477507074 18.6322990059839881   T   T   T
  3.8452351578489603  3.8450584136677604 18.6470254178845458   T   T   T
  6.3663352221891349  3.8447589483534195 18.6461416390597172   T   T   T
  8.9296352580868419  3.8273123371983493 18.6325574714219400   T   T   T
  1.2813282039682410  6.3841229914787974 18.6317659579927479   T   T   T
  3.8448632645825249  6.3660329884403737 18.6475223459884347   T   T   T
  6.3664896410104657  6.3664658949469528 18.6465219899303953   T   T   T
  8.9299701237778049  6.3839620178600347 18.6315672627279909   T   T   T
  1.2726141257554275  8.9379635413810785 18.6339514308028136   T   T   T
  3.8263751520249691  8.9310358696323924 18.6317120766447033   T   T   T
  6.3837109685760840  8.9308099065356057 18.6318223006894250   T   T   T
  8.9381731969661793  8.9386348641223119 18.6333351564822358   T   T   T
 10.2103749825796779  0.0003578259264889 20.4233859783476248   T   T   T
  2.5535209581979323  0.0008070953365015 20.4144936456780357   T   T   T
  5.1052768567204385  0.0033952501747353 20.4114107494644905   T   T   T
  7.6561186441903732  0.0009591565277140 20.4145283352162394   T   T   T
 10.2105884193157479  2.5544941887033485 20.4151507396868759   T   T   T
  2.5470717300894794  2.5475112763176848 20.3988609151911895   T   T   T
  5.1051754706823180  2.5333998507509086 20.4098833260562174   T   T   T
  7.6642637517090684  2.5468816964246717 20.3977549172917847   T   T   T
  0.0008377230409100  5.1056927960937042 20.4113642237959318   T   T   T
  2.5303616662549042  5.1052873043971640 20.4077463186657582   T   T   T
  5.1039106476359235  5.1080436987398867 20.6036864337834871   T   T   T
  7.6804058167857638  5.1058757232555187 20.4074407320115156   T   T   T
 10.2101610886684355  7.6568344798217076 20.4141445955277838   T   T   T
  2.5467637396556242  7.6638679061588721 20.3995346971846523   T   T   T
  5.1051254416171412  7.6831269337049832 20.4056068395022088   T   T   T
  7.6644385014338052  7.6652726963984410 20.3977216612342040   T   T   T
  5.1640300312250833  5.1028848862466596 22.5800837545683777   T   T   T
  5.3227164847322888  6.1332642225608653 22.9204041927236979   T   T   T
  5.9910960648432612  4.4562822201310270 22.8976229149673003   T   T   T
  4.2046050851434167  4.7142467522265514 22.9424295579872854   T   T   T
