CO2_Cu110
 1.0000000000000000
    10.8300000000000001    0.0000000000000000    0.0000000000000000
     0.0000000000000000    5.1053109601668734    0.0000000000000000
     0.0000000000000000    0.0000000000000000   33.8289832201251528
 Cu  C   O  
  24   1   2
Selective dynamics
Cartesian
  1.8049999999999999  1.2763277400417183 14.9999999999999982   F   F   F
  5.4149999999999991  1.2763277400417183 14.9999999999999982   F   F   F
  9.0249999999999986  1.2763277400417183 14.9999999999999982   F   F   F
  1.8049999999999999  3.8289832201251550 14.9999999999999982   F   F   F
  5.4149999999999991  3.8289832201251550 14.9999999999999982   F   F   F
  9.0249999999999986  3.8289832201251550 14.9999999999999982   F   F   F
  0.0000000000000000  0.0000000000000000 16.2763277400417152   F   F   F
  3.6099999999999999  0.0000000000000000 16.2763277400417152   F   F   F
  7.2199999999999998  0.0000000000000000 16.2763277400417152   F   F   F
  0.0000000000000000  2.5526554800834367 16.2763277400417152   F   F   F
  3.6099999999999999  2.5526554800834367 16.2763277400417152   F   F   F
  7.2199999999999998  2.5526554800834367 16.2763277400417152   F   F   F
  1.8049904787341726  1.2763868658922017 17.6150067135916437   T   T   T
  5.4149993680985471  1.2763231337129963 17.6156813026502661   T   T   T
  9.0250121651465172  1.2762677179001971 17.6150075977055245   T   T   T
  1.8048739913611278  3.8289677834709521 17.6148812055722708   T   T   T
  5.4149997518113917  3.8289840306127965 17.6152942454824384   T   T   T
  9.0251267537786664  3.8289959516044991 17.6148780645452447   T   T   T
 10.8299998801524477  5.1052441237603849 18.7754308528299596   T   T   T
  3.6096984132781271  0.0001770001566069 18.7743559802743221   T   T   T
  7.2200656945271300  0.0003273680559364 18.7754196882887072   T   T   T
 10.8299710947083856  2.5527359984771065 18.7754597651353023   T   T   T
  3.6099304944404684  2.5523266058927057 18.7754261586139251   T   T   T
  7.2203100824149429  2.5524610102987744 18.7743393790104456   T   T   T
  5.4238639446296828  3.8111921792729655 22.1905079259149112   T   T   T
  6.3928080390436373  4.4772576287500936 22.1931960072566170   T   T   T
  4.4548832937620340  3.1451068130788027 22.1915832259880972   T   T   T
