CH3CH2OH_Cu100
 1.0000000000000000
    10.2106219203337467    0.0000000000000000    0.0000000000000000
     0.0000000000000000   10.2106219203337467    0.0000000000000000
     0.0000000000000000    0.0000000000000000   35.4149999999999991
 Cu  C   O   H  
  64   2   1   6
Selective dynamics
Cartesian
  1.2763277400417183  1.2763277400417183 15.0000000000000000   F   F   F
  3.8289832201251550  1.2763277400417183 15.0000000000000000   F   F   F
  6.3816387002085921  1.2763277400417183 15.0000000000000000   F   F   F
  8.9342941802920279  1.2763277400417183 15.0000000000000000   F   F   F
  1.2763277400417183  3.8289832201251550 15.0000000000000000   F   F   F
  3.8289832201251550  3.8289832201251550 15.0000000000000000   F   F   F
  6.3816387002085921  3.8289832201251550 15.0000000000000000   F   F   F
  8.9342941802920279  3.8289832201251550 15.0000000000000000   F   F   F
  1.2763277400417183  6.3816387002085921 15.0000000000000000   F   F   F
  3.8289832201251550  6.3816387002085921 15.0000000000000000   F   F   F
  6.3816387002085921  6.3816387002085921 15.0000000000000000   F   F   F
  8.9342941802920279  6.3816387002085921 15.0000000000000000   F   F   F
  1.2763277400417183  8.9342941802920279 15.0000000000000000   F   F   F
  3.8289832201251550  8.9342941802920279 15.0000000000000000   F   F   F
  6.3816387002085921  8.9342941802920279 15.0000000000000000   F   F   F
  8.9342941802920279  8.9342941802920279 15.0000000000000000   F   F   F
  0.0000000000000000  0.0000000000000000 16.8049999999999997   F   F   F
  2.5526554800834367  0.0000000000000000 16.8049999999999997   F   F   F
  5.1053109601668734  0.0000000000000000 16.8049999999999997   F   F   F
  7.6579664402503100  0.0000000000000000 16.8049999999999997   F   F   F
  0.0000000000000000  2.5526554800834367 16.8049999999999997   F   F   F
  2.5526554800834367  2.5526554800834367 16.8049999999999997   F   F   F
  5.1053109601668734  2.5526554800834367 16.8049999999999997   F   F   F
  7.6579664402503100  2.5526554800834367 16.8049999999999997   F   F   F
  0.0000000000000000  5.1053109601668734 16.8049999999999997   F   F   F
  2.5526554800834367  5.1053109601668734 16.8049999999999997   F   F   F
  5.1053109601668734  5.1053109601668734 16.8049999999999997   F   F   F
  7.6579664402503100  5.1053109601668734 16.8049999999999997   F   F   F
  0.0000000000000000  7.6579664402503100 16.8049999999999997   F   F   F
  2.5526554800834367  7.6579664402503100 16.8049999999999997   F   F   F
  5.1053109601668734  7.6579664402503100 16.8049999999999997   F   F   F
  7.6579664402503100  7.6579664402503100 16.8049999999999997   F   F   F
  1.2754699562836775  1.2742920686856880 18.6373798857138588   T   T   T
  3.8239119871015403  1.2742701916688015 18.6300145059658249   T   T   T
  6.3851105945326161  1.2741899935254284 18.6278874493068933   T   T   T
  8.9360616615407711  1.2746992671404878 18.6358271813329459   T   T   T
  1.2717312054241112  3.8206954219545999 18.6254701499855564   T   T   T
  3.8426894003354413  3.8442179002836889 18.6539247886492170   T   T   T
  6.3645500457540134  3.8471581144587894 18.6578817636406242   T   T   T
  8.9360122470982120  3.8249950343515686 18.6287598765778135   T   T   T
  1.2713694902182535  6.3882689455561401 18.6253750832832807   T   T   T
  3.8424357555218029  6.3710719800929514 18.6530999974535092   T   T   T
  6.3667517979117054  6.3690084588143074 18.6577475271331217   T   T   T
  8.9349930746195838  6.3854516629165330 18.6312269185086627   T   T   T
  1.2737294828709174  8.9371885883465776 18.6343852263468435   T   T   T
  3.8237187648920568  8.9368941431693028 18.6289056378207931   T   T   T
  6.3884969362313972  8.9371521433753500 18.6277740724036498   T   T   T
  8.9372674294859262  8.9360720044120807 18.6357037643401036   T   T   T
 10.2105504679077388 10.2100216706000673 20.4167580628495884   T   T   T
  2.5539313323500079 10.2065398963008391 20.4179256776392890   T   T   T
  5.1049170451589445  0.0023582474518630 20.4152228381392646   T   T   T
  7.6567810410948471  0.0019955346837311 20.4165602595333908   T   T   T
 10.2093895386269757  2.5529963717874802 20.4170330696881628   T   T   T
  2.5533909702060993  2.5518233615056225 20.4104576160006133   T   T   T
  5.1057877817281856  2.5261420049981651 20.3950475431912608   T   T   T
  7.6558492687131334  2.5543445003017484 20.4053500510307835   T   T   T
 10.2071690919463407  5.1058776416729668 20.4165176490246836   T   T   T
  2.5119481803350072  5.1028329965688242 20.3796365621246522   T   T   T
  5.1092972934207079  5.0909520419074843 20.5438513556716629   T   T   T
  7.6843430677157674  5.1036502484289334 20.3986107082191275   T   T   T
  0.0040774832859443  7.6564562140337564 20.4184457868120610   T   T   T
  2.5510597019325973  7.6565325414068530 20.4087379772003814   T   T   T
  5.1087496776908798  7.6946661842519175 20.3899882047193479   T   T   T
  7.6639637567249439  7.6606406292269842 20.4077332624993808   T   T   T
  6.3223475006623611  4.2190149995157462 24.0034172262534646   T   T   T
  4.9403127785346124  4.8100077901424028 23.9356212981327161   T   T   T
  4.8034615619780912  5.5580071126311941 22.6788931832676077   T   T   T
  3.9253427614012106  5.9937452007727527 22.6554253936786161   T   T   T
  4.1559698569823533  4.0376705692451891 23.9855859947609673   T   T   T
  4.7645098471660834  5.5154537568556865 24.7632300110492949   T   T   T
  7.0856049083034449  5.0051610728933831 23.9834574075265081   T   T   T
  6.4331495800735361  3.6551126848275834 24.9391603810028890   T   T   T
  6.4983027859757021  3.5311984246115777 23.1659466529767215   T   T   T
