CH3OCH3_Ag100
 1.0000000000000000
     8.6762002051589384    0.0000000000000000    0.0000000000000000
     0.0000000000000000    8.6762002051589384    0.0000000000000000
     0.0000000000000000    0.0000000000000000   36.1349999999999980
 Ag  C   O   H  
  36   2   1   6
Selective dynamics
Cartesian
  1.4460333675264894  1.4460333675264894 15.0000000000000000   F   F   F
  4.3381001025794692  1.4460333675264894 15.0000000000000000   F   F   F
  7.2301668376324475  1.4460333675264894 15.0000000000000000   F   F   F
  1.4460333675264894  4.3381001025794692 15.0000000000000000   F   F   F
  4.3381001025794692  4.3381001025794692 15.0000000000000000   F   F   F
  7.2301668376324475  4.3381001025794692 15.0000000000000000   F   F   F
  1.4460333675264894  7.2301668376324475 15.0000000000000000   F   F   F
  4.3381001025794692  7.2301668376324475 15.0000000000000000   F   F   F
  7.2301668376324475  7.2301668376324475 15.0000000000000000   F   F   F
  0.0000000000000000  0.0000000000000000 17.0450000000000017   F   F   F
  2.8920667350529787  0.0000000000000000 17.0450000000000017   F   F   F
  5.7841334701059575  0.0000000000000000 17.0450000000000017   F   F   F
  0.0000000000000000  2.8920667350529787 17.0450000000000017   F   F   F
  2.8920667350529787  2.8920667350529787 17.0450000000000017   F   F   F
  5.7841334701059575  2.8920667350529787 17.0450000000000017   F   F   F
  0.0000000000000000  5.7841334701059575 17.0450000000000017   F   F   F
  2.8920667350529787  5.7841334701059575 17.0450000000000017   F   F   F
  5.7841334701059575  5.7841334701059575 17.0450000000000017   F   F   F
  1.4538680792259573  1.4544493126949827 19.1777855297209108   T   T   T
  4.3315195168081155  1.4537487112852101 19.1775130169018091   T   T   T
  7.2291168429550456  1.4425932409771571 19.1590389328557649   T   T   T
  1.4524028591864175  4.3306339336647186 19.1772401822271981   T   T   T
  4.3302740007434597  4.3297330646983188 19.1774545559581711   T   T   T
  7.2303703256402061  4.3416427921473106 19.1594487455831306   T   T   T
  1.4420958799229997  7.2295047598370230 19.1556531305513360   T   T   T
  4.3423464914054763  7.2306792831689188 19.1558979336808832   T   T   T
  7.2299186121893078  7.2298609162430969 19.1652879412753663   T   T   T
  0.0000099695602864  8.6761545340195383 21.2391202798545073   T   T   T
  2.8921370057374718  8.6679420649607994 21.2316385603186824   T   T   T
  5.7816081339924956  0.0000145681081490 21.2458994913220458   T   T   T
  8.6649015366146216  2.8919280504467468 21.2341457729687342   T   T   T
  2.8911479950591281  2.8925405855845541 21.3096827024823199   T   T   T
  5.7923431462464974  2.8921396899741030 21.2370147514965879   T   T   T
  0.0026555065012502  5.7834640211312145 21.2459085177629028   T   T   T
  2.8922803192961015  5.7928904596344024 21.2315190369203286   T   T   T
  5.7835338483941712  5.7833949646217189 21.2414214528970007   T   T   T
  2.3319257018604476  1.7975126446834520 24.9421304332812426   T   T   T
  3.2145571454700597  3.9925134957846828 24.9802554618749433   T   T   T
  2.7854877621933540  2.9042631894476134 24.1568081151787197   T   T   T
  1.4932606478309745  2.0923811947721878 25.5967929747245471   T   T   T
  1.9872694051003068  1.0150702552375737 24.2572134518620857   T   T   T
  3.1425919333630912  1.3962593718506013 25.5769544008043432   T   T   T
  3.5837552084976605  4.7885483357075023 24.3248618749050145   T   T   T
  4.0295966203808291  3.6810896546361116 25.6568413883088233   T   T   T
  2.3837172007770633  4.3820111132026662 25.5958543574984425   T   T   T
