H2S_Cu111
 1.0000000000000000
    10.2106219203337467    0.0000000000000000    0.0000000000000000
     0.0000000000000000    8.8426579714472719    0.0000000000000000
     0.0000000000000000    0.0000000000000000   36.2527034153236514
 Cu  S   H  
  64   1   2
Selective dynamics
Cartesian
  0.0000000000000000  0.0000000000000000 15.0000000000000000   F   F   F
  2.5526554800834367  0.0000000000000000 15.0000000000000000   F   F   F
  5.1053109601668734  0.0000000000000000 15.0000000000000000   F   F   F
  7.6579664402503100  0.0000000000000000 15.0000000000000000   F   F   F
  1.2763277400417183  2.2106644928618180 15.0000000000000000   F   F   F
  3.8289832201251550  2.2106644928618180 15.0000000000000000   F   F   F
  6.3816387002085921  2.2106644928618180 15.0000000000000000   F   F   F
  8.9342941802920279  2.2106644928618180 15.0000000000000000   F   F   F
  0.0000000000000000  4.4213289857236360 15.0000000000000000   F   F   F
  2.5526554800834367  4.4213289857236360 15.0000000000000000   F   F   F
  5.1053109601668734  4.4213289857236360 15.0000000000000000   F   F   F
  7.6579664402503100  4.4213289857236360 15.0000000000000000   F   F   F
  1.2763277400417183  6.6319934785854526 15.0000000000000000   F   F   F
  3.8289832201251550  6.6319934785854526 15.0000000000000000   F   F   F
  6.3816387002085921  6.6319934785854526 15.0000000000000000   F   F   F
  8.9342941802920279  6.6319934785854526 15.0000000000000000   F   F   F
  1.2763277400417183  0.7368881642872727 17.0842344717745505   F   F   F
  3.8289832201251550  0.7368881642872727 17.0842344717745505   F   F   F
  6.3816387002085921  0.7368881642872727 17.0842344717745505   F   F   F
  8.9342941802920279  0.7368881642872727 17.0842344717745505   F   F   F
  0.0000000000000000  2.9475526571490906 17.0842344717745505   F   F   F
  2.5526554800834367  2.9475526571490906 17.0842344717745505   F   F   F
  5.1053109601668734  2.9475526571490906 17.0842344717745505   F   F   F
  7.6579664402503100  2.9475526571490906 17.0842344717745505   F   F   F
  1.2763277400417183  5.1582171500109091 17.0842344717745505   F   F   F
  3.8289832201251550  5.1582171500109091 17.0842344717745505   F   F   F
  6.3816387002085921  5.1582171500109091 17.0842344717745505   F   F   F
  8.9342941802920279  5.1582171500109091 17.0842344717745505   F   F   F
  0.0000000000000000  7.3688816428727266 17.0842344717745505   F   F   F
  2.5526554800834367  7.3688816428727266 17.0842344717745505   F   F   F
  5.1053109601668734  7.3688816428727266 17.0842344717745505   F   F   F
  7.6579664402503100  7.3688816428727266 17.0842344717745505   F   F   F
 10.2102186456751447  1.4733833931274467 19.1635328537349530   T   T   T
  2.5534427395145411  1.4743335592426501 19.1660743304504244   T   T   T
  5.1039334082148748  1.4745053547852323 19.1676592682486664   T   T   T
  7.6591163730065634  1.4729785700735492 19.1623454079869333   T   T   T
  1.2756588356772707  3.6842933388060271 19.1638012916002616   T   T   T
  3.8289877373620542  3.6828246810248335 19.1676235264001669   T   T   T
  6.3812214020266955  3.6842663002805622 19.1656531011528841   T   T   T
  8.9349855652591668  3.6847006403670930 19.1633771402264443   T   T   T
  0.0000818061655709  5.8951427613323677 19.1638875854124748   T   T   T
  2.5520028554752807  5.8961241438341343 19.1628577155488848   T   T   T
  5.1050867754075711  5.8963508830755025 19.1623053935606862   T   T   T
  7.6588748011386985  5.8956184238961624 19.1633510874601249   T   T   T
  1.2757700667884060  8.1055750677160940 19.1633931262652908   T   T   T
  3.8284799572150461  8.1055425041536555 19.1635816188723247   T   T   T
  6.3824056032229475  8.1050837794222090 19.1628957410368663   T   T   T
  8.9346344264135080  8.1057365458926629 19.1639208329459372   T   T   T
  0.0000032394240844  8.8422348820681620 21.2560167765863994   T   T   T
  2.5514659976428682  8.8411071955974254 21.2551265598600629   T   T   T
  5.1062047950780816  8.8399923907353681 21.2543983585583938   T   T   T
  7.6582659727921412  8.8424957216694651 21.2570484801767456   T   T   T
  1.2741900741124861  2.2103093933870199 21.2550232721700034   T   T   T
  3.8286502731388361  2.2107690062150973 21.2669577096629041   T   T   T
  6.3856212352226622  2.2110427780515511 21.2484014495604683   T   T   T
  8.9335184696155245  2.2099779553801788 21.2580554489494418   T   T   T
  0.0000095246040932  4.4212178072378423 21.2561515596494033   T   T   T
  2.5506995230297873  4.4238476098115456 21.2543866607914786   T   T   T
  5.1072771061395388  4.4242511096668427 21.2491558538516472   T   T   T
  7.6579979251024506  4.4211955988505141 21.2582656662776692   T   T   T
  1.2765422057614024  6.6324156983061506 21.2564297652312746   T   T   T
  3.8290081633225048  6.6320503046754142 21.2575271765565432   T   T   T
  6.3810528850444115  6.6315521829140200 21.2585256453548865   T   T   T
  8.9339445516313436  6.6323956786201768 21.2559664750335422   T   T   T
  4.7392586419952885  2.7388463317716529 24.6618740778408601   T   T   T
  4.7529029640359193  3.8939836698213535 23.9633743669111112   T   T   T
  5.7599346043120745  2.2867213611768551 23.9008099790375752   T   T   T
