NH3_Rh111
 1.0000000000000000
    10.7565083554097622    0.0000000000000000    0.0000000000000000
     0.0000000000000000    9.3154094918044255    0.0000000000000000
     0.0000000000000000    0.0000000000000000   36.5869892211844387
 Rh  N   H  
  64   1   3
Selective dynamics
Cartesian
  0.0000000000000000  0.0000000000000000 15.0000000000000000   F   F   F
  2.6891270888524406  0.0000000000000000 15.0000000000000000   F   F   F
  5.3782541777048811  0.0000000000000000 15.0000000000000000   F   F   F
  8.0673812665573212  0.0000000000000000 15.0000000000000000   F   F   F
  1.3445635444262203  2.3288523729511064 15.0000000000000000   F   F   F
  4.0336906332786606  2.3288523729511064 15.0000000000000000   F   F   F
  6.7228177221311016  2.3288523729511064 15.0000000000000000   F   F   F
  9.4119448109835417  2.3288523729511064 15.0000000000000000   F   F   F
  0.0000000000000000  4.6577047459022127 15.0000000000000000   F   F   F
  2.6891270888524406  4.6577047459022127 15.0000000000000000   F   F   F
  5.3782541777048811  4.6577047459022127 15.0000000000000000   F   F   F
  8.0673812665573212  4.6577047459022127 15.0000000000000000   F   F   F
  1.3445635444262203  6.9865571188533195 15.0000000000000000   F   F   F
  4.0336906332786606  6.9865571188533195 15.0000000000000000   F   F   F
  6.7228177221311016  6.9865571188533195 15.0000000000000000   F   F   F
  9.4119448109835417  6.9865571188533195 15.0000000000000000   F   F   F
  1.3445635444262203  0.7762841243170354 17.1956630737281486   F   F   F
  4.0336906332786606  0.7762841243170354 17.1956630737281486   F   F   F
  6.7228177221311016  0.7762841243170354 17.1956630737281486   F   F   F
  9.4119448109835417  0.7762841243170354 17.1956630737281486   F   F   F
  0.0000000000000000  3.1051364972681417 17.1956630737281486   F   F   F
  2.6891270888524406  3.1051364972681417 17.1956630737281486   F   F   F
  5.3782541777048811  3.1051364972681417 17.1956630737281486   F   F   F
  8.0673812665573212  3.1051364972681417 17.1956630737281486   F   F   F
  1.3445635444262203  5.4339888702192489 17.1956630737281486   F   F   F
  4.0336906332786606  5.4339888702192489 17.1956630737281486   F   F   F
  6.7228177221311016  5.4339888702192489 17.1956630737281486   F   F   F
  9.4119448109835417  5.4339888702192489 17.1956630737281486   F   F   F
  0.0000000000000000  7.7628412431703548 17.1956630737281486   F   F   F
  2.6891270888524406  7.7628412431703548 17.1956630737281486   F   F   F
  5.3782541777048811  7.7628412431703548 17.1956630737281486   F   F   F
  8.0673812665573212  7.7628412431703548 17.1956630737281486   F   F   F
  0.0006412757798773  1.5523351057981796 19.4034320381995471   T   T   T
  2.6888297881484240  1.5550603161622316 19.3986134973593209   T   T   T
  5.3790961335801093  1.5547421098786336 19.4031372654589838   T   T   T
  8.0675001580244370  1.5557995786415670 19.4001616919507995   T   T   T
  1.3494297423896608  3.8794607045183747 19.4016090398362238   T   T   T
  4.0440517592818574  3.8863511443417540 19.4336630462659095   T   T   T
  6.7163622162247627  3.8873859212792459 19.4303303646646555   T   T   T
  9.4120444955907292  3.8786650887534857 19.3977834801757894   T   T   T
  0.0007203929177887  6.2098854205362617 19.4023884720339730   T   T   T
  2.6905699430465364  6.2084638791384936 19.4035367703347426   T   T   T
  5.3777399422147436  6.2002607536900820 19.4321250731284749   T   T   T
  8.0665193574605496  6.2102394057946384 19.4019504894909325   T   T   T
  1.3447674862150327  8.5391296992439312 19.4011720984460005   T   T   T
  4.0354075531456299  8.5390468916487841 19.3993912312843584   T   T   T
  6.7207625403303224  8.5380136149096799 19.4009868224698785   T   T   T
  9.4123349181566311  8.5392292206713662 19.4011586958548392   T   T   T
  0.0004817686731487  9.3145445484588709 21.5904346138763259   T   T   T
  2.6865619237944487  9.3152292928328144 21.5914154663399991   T   T   T
  5.3777523074753883  0.0006522179725295 21.5895170193568511   T   T   T
  8.0721275653796916  9.3149873981973617 21.5909848601422567   T   T   T
  1.3478375934664881  2.3284711357508980 21.5903450402578230   T   T   T
  4.0232010531900464  2.3112554257657663 21.5845945398189833   T   T   T
  6.7321953139131576  2.3142339090459307 21.5858396781284156   T   T   T
  9.4131220552743375  2.3292401857806277 21.5893280097781570   T   T   T
  0.0010295556138203  4.6587905281830251 21.5904864258587956   T   T   T
  2.6764697054098066  4.6596580190925270 21.5909116417393854   T   T   T
  5.3857086790992650  4.6581363102682998 21.6789017074815717   T   T   T
  8.0941174766888011  4.6574566398896247 21.5798015090041382   T   T   T
  1.3477271752778885  6.9869368089983936 21.5914019489157809   T   T   T
  4.0239038916604359  7.0039962046166000 21.5837276099432280   T   T   T
  6.7343510921975946  7.0005131595335586 21.5865206802377152   T   T   T
  9.4125432826161450  6.9864620128970270 21.5912115588371414   T   T   T
  5.4275353562645492  4.6528924275864556 23.8021805429713282   T   T   T
  4.9969879632576708  3.7806346430850177 24.1278511519265422   T   T   T
  6.4038195399833242  4.7083172017686614 24.1139055488908838   T   T   T
  4.8974934300795647  5.4640848834410614 24.1386156930553888   T   T   T
