CO2_Ir111
 1.0000000000000000
    10.8611601590253706    0.0000000000000000    0.0000000000000000
     0.0000000000000000    9.4060406122874021    0.0000000000000000
     0.0000000000000000    0.0000000000000000   36.6510751010644924
 Ir  C   O  
  64   1   2
Selective dynamics
Cartesian
  0.0000000000000000  0.0000000000000000 15.0000000000000018   F   F   F
  2.7152900397563422  0.0000000000000000 15.0000000000000018   F   F   F
  5.4305800795126844  0.0000000000000000 15.0000000000000018   F   F   F
  8.1458701192690270  0.0000000000000000 15.0000000000000018   F   F   F
  1.3576450198781711  2.3515101530718505 15.0000000000000018   F   F   F
  4.0729350596345135  2.3515101530718505 15.0000000000000018   F   F   F
  6.7882250993908571  2.3515101530718505 15.0000000000000018   F   F   F
  9.5035151391471988  2.3515101530718505 15.0000000000000018   F   F   F
  0.0000000000000000  4.7030203061437010 15.0000000000000018   F   F   F
  2.7152900397563422  4.7030203061437010 15.0000000000000018   F   F   F
  5.4305800795126844  4.7030203061437010 15.0000000000000018   F   F   F
  8.1458701192690270  4.7030203061437010 15.0000000000000018   F   F   F
  1.3576450198781711  7.0545304592155516 15.0000000000000018   F   F   F
  4.0729350596345135  7.0545304592155516 15.0000000000000018   F   F   F
  6.7882250993908571  7.0545304592155516 15.0000000000000018   F   F   F
  9.5035151391471988  7.0545304592155516 15.0000000000000018   F   F   F
  1.3576450198781711  0.7838367176906168 17.2170250336881665   F   F   F
  4.0729350596345135  0.7838367176906168 17.2170250336881665   F   F   F
  6.7882250993908571  0.7838367176906168 17.2170250336881665   F   F   F
  9.5035151391471988  0.7838367176906168 17.2170250336881665   F   F   F
  0.0000000000000000  3.1353468707624672 17.2170250336881665   F   F   F
  2.7152900397563422  3.1353468707624672 17.2170250336881665   F   F   F
  5.4305800795126844  3.1353468707624672 17.2170250336881665   F   F   F
  8.1458701192690270  3.1353468707624672 17.2170250336881665   F   F   F
  1.3576450198781711  5.4868570238343182 17.2170250336881665   F   F   F
  4.0729350596345135  5.4868570238343182 17.2170250336881665   F   F   F
  6.7882250993908571  5.4868570238343182 17.2170250336881665   F   F   F
  9.5035151391471988  5.4868570238343182 17.2170250336881665   F   F   F
  0.0000000000000000  7.8383671769061687 17.2170250336881665   F   F   F
  2.7152900397563422  7.8383671769061687 17.2170250336881665   F   F   F
  5.4305800795126844  7.8383671769061687 17.2170250336881665   F   F   F
  8.1458701192690270  7.8383671769061687 17.2170250336881665   F   F   F
  0.0000080675227804  1.5677198694334373 19.4471060028034124   T   T   T
  2.7152622275060816  1.5676940163253776 19.4479778584919849   T   T   T
  5.4308028988244121  1.5678334376087906 19.4473523994559656   T   T   T
  8.1459216190263053  1.5674520633109974 19.4473207016489518   T   T   T
  1.3571924180733930  3.9190509787116654 19.4490700890554322   T   T   T
  4.0731084953091719  3.9190608812794032 19.4517535559811243   T   T   T
  6.7891200180890321  3.9188919771314494 19.4472084936023251   T   T   T
  9.5037640778995431  3.9190374221149500 19.4469015686025841   T   T   T
 10.8610228918931391  6.2707290187650910 19.4483161360992867   T   T   T
  2.7153422482345890  6.2711831981511734 19.4517202322995502   T   T   T
  5.4304576621928371  6.2709729965615688 19.4507188201604215   T   T   T
  8.1460195033059346  6.2708310452780172 19.4473402674073341   T   T   T
  1.3577807028822593  8.6226047260184497 19.4473878846415786   T   T   T
  4.0730918083844525  8.6228530018077709 19.4472061084669399   T   T   T
  6.7884313361672319  8.6223132349100489 19.4473388917085970   T   T   T
  9.5033804802452888  8.6221801904336619 19.4474246017996180   T   T   T
  0.0002333815542025  9.4054608108881581 21.6601977360646387   T   T   T
  2.7150725983446944  9.4044241402142319 21.6588704664031368   T   T   T
  5.4301714218287547  9.4052940708655193 21.6597921105491160   T   T   T
  8.1458701262509301  0.0001452700980257 21.6600491681814766   T   T   T
  1.3578764202319165  2.3532627287406847 21.6593027459643643   T   T   T
  4.0727978009539916  2.3528691138585738 21.6580876869456702   T   T   T
  6.7871442710147285  2.3525063149620582 21.6592024723126784   T   T   T
  9.5038457686614262  2.3519547288461613 21.6602473311853316   T   T   T
  0.0019915043010192  4.7028232069252134 21.6595391365694212   T   T   T
  2.7157130511025809  4.7029028041639132 21.6559523091095798   T   T   T
  5.4300627016432905  4.7031118959992950 21.6576622850399119   T   T   T
  8.1443560741191039  4.7033453361699085 21.6600704521781502   T   T   T
  1.3581816430545437  7.0533342295855324 21.6580172731286709   T   T   T
  4.0725847891594542  7.0539776136206500 21.6568582906800700   T   T   T
  6.7868510658137735  7.0536155161962224 21.6600373160482107   T   T   T
  9.5040717107730188  7.0541616238157197 21.6598851075090550   T   T   T
  3.4700136055192830  5.0946729602700769 25.1273707349828861   T   T   T
  3.0214108803119371  6.1819960218818197 25.1414700555819763   T   T   T
  3.9233994313407017  4.0102772090258343 25.1713094367413461   T   T   T
