C2H6_Rh110
 1.0000000000000000
    11.4089999999999989    0.0000000000000000    0.0000000000000000
     0.0000000000000000    5.3782541777048811    0.0000000000000000
     0.0000000000000000    0.0000000000000000   34.0336906332786597
 Rh  C   H  
  24   2   6
Selective dynamics
Cartesian
  1.9014999999999997  1.3445635444262203 15.0000000000000000   F   F   F
  5.7044999999999995  1.3445635444262203 15.0000000000000000   F   F   F
  9.5074999999999985  1.3445635444262203 15.0000000000000000   F   F   F
  1.9014999999999997  4.0336906332786606 15.0000000000000000   F   F   F
  5.7044999999999995  4.0336906332786606 15.0000000000000000   F   F   F
  9.5074999999999985  4.0336906332786606 15.0000000000000000   F   F   F
  0.0000000000000000  0.0000000000000000 16.3445635444262187   F   F   F
  3.8029999999999995  0.0000000000000000 16.3445635444262187   F   F   F
  7.6059999999999990  0.0000000000000000 16.3445635444262187   F   F   F
  0.0000000000000000  2.6891270888524406 16.3445635444262187   F   F   F
  3.8029999999999995  2.6891270888524406 16.3445635444262187   F   F   F
  7.6059999999999990  2.6891270888524406 16.3445635444262187   F   F   F
  1.8993396017174222  1.3442805949540386 17.7414893862633818   T   T   T
  5.7086064070607394  1.3455662445668650 17.7403059430536167   T   T   T
  9.5075192537483577  1.3423410568590508 17.7369215670810156   T   T   T
  1.8977548879475650  4.0328827970648415 17.7385430563221043   T   T   T
  5.7059544508391449  4.0344385422395135 17.7432559803588781   T   T   T
  9.5083691757501594  4.0351217290595498 17.7373138967529940   T   T   T
  0.0039424328077694  5.3780571655521756 18.9865907421228250   T   T   T
  3.8030330399645673  0.0000775152131814 18.9731815053434119   T   T   T
  7.6026785167330519  5.3779067706997532 18.9863719614705637   T   T   T
  0.0009586648255412  2.6887318754943608 18.9828696745950118   T   T   T
  3.8020418391565327  2.6889859074373730 18.9763878653530966   T   T   T
  7.6071046115176424  2.6897625142891100 18.9806623325928641   T   T   T
  4.7229010357307413  2.4684306123509896 22.0202603562084853   T   T   T
  3.2207226507390625  2.7488959787327838 21.9945808074611335   T   T   T
  5.0163205109212869  1.9107810498625177 22.9220296175797955   T   T   T
  5.0398484827512275  1.8436735953572643 21.1668379804610858   T   T   T
  5.3118649293039111  3.3966264513950697 21.9808837483590978   T   T   T
  2.9355825557807380  3.4439273827824173 21.1793466007791267   T   T   T
  2.8841381915558872  3.2429739193533349 22.9181615509628607   T   T   T
  2.6301215270545946  1.8300006947306928 21.8664438362365949   T   T   T
