SO2_Cu110
 1.0000000000000000
    10.8300000000000001    0.0000000000000000    0.0000000000000000
     0.0000000000000000    5.1053109601668734    0.0000000000000000
     0.0000000000000000    0.0000000000000000   33.8289832201251528
 Cu  S   O  
  24   1   2
Selective dynamics
Cartesian
  1.8049999999999999  1.2763277400417183 14.9999999999999982   F   F   F
  5.4149999999999991  1.2763277400417183 14.9999999999999982   F   F   F
  9.0249999999999986  1.2763277400417183 14.9999999999999982   F   F   F
  1.8049999999999999  3.8289832201251550 14.9999999999999982   F   F   F
  5.4149999999999991  3.8289832201251550 14.9999999999999982   F   F   F
  9.0249999999999986  3.8289832201251550 14.9999999999999982   F   F   F
  0.0000000000000000  0.0000000000000000 16.2763277400417152   F   F   F
  3.6099999999999999  0.0000000000000000 16.2763277400417152   F   F   F
  7.2199999999999998  0.0000000000000000 16.2763277400417152   F   F   F
  0.0000000000000000  2.5526554800834367 16.2763277400417152   F   F   F
  3.6099999999999999  2.5526554800834367 16.2763277400417152   F   F   F
  7.2199999999999998  2.5526554800834367 16.2763277400417152   F   F   F
  1.8264228834451115  1.2707758313826170 17.6066335632139328   T   T   T
  5.4069995859839750  1.2798880335491907 17.4993551448253868   T   T   T
  9.0122561134939048  1.2722287175822591 17.6103318587717119   T   T   T
  1.8349400134847407  3.8217991990245550 17.6119956173779819   T   T   T
  5.4118859633956005  3.8181133701033891 17.5392241435479228   T   T   T
  8.9933579525958471  3.8460035080685877 17.6277329638618241   T   T   T
  0.0071521172554147  0.0051117966527855 18.7552033481639810   T   T   T
  3.6512545071464118  5.0598439478560753 18.8144135981168326   T   T   T
  7.1680610451086588  0.0084778181934870 18.8478536845066529   T   T   T
  0.0028773691469181  2.5572887898935979 18.7563184318663083   T   T   T
  3.6364525060093214  2.5582943834782603 18.8577093755327319   T   T   T
  7.1915852464348440  2.5560907503824373 18.7405252087994256   T   T   T
  4.7154202561136094  0.5824432834389992 20.7624220094397778   T   T   T
  6.2427707537766386  0.4931884233378280 20.5334821277460726   T   T   T
  4.2807422687012862  2.0650026883827599 20.6696133200395167   T   T   T
