C2H4_Ir110
 1.0000000000000000
    11.5199999999999996    0.0000000000000000    0.0000000000000000
     0.0000000000000000    5.4305800795126853    0.0000000000000000
     0.0000000000000000    0.0000000000000000   34.0729350596345171
 Ir  C   H  
  24   2   4
Selective dynamics
Cartesian
  1.9199999999999999  1.3576450198781711 15.0000000000000018   F   F   F
  5.7599999999999989  1.3576450198781711 15.0000000000000018   F   F   F
  9.5999999999999996  1.3576450198781711 15.0000000000000018   F   F   F
  1.9199999999999999  4.0729350596345135 15.0000000000000018   F   F   F
  5.7599999999999989  4.0729350596345135 15.0000000000000018   F   F   F
  9.5999999999999996  4.0729350596345135 15.0000000000000018   F   F   F
  0.0000000000000000  0.0000000000000000 16.3576450198781735   F   F   F
  3.8399999999999999  0.0000000000000000 16.3576450198781735   F   F   F
  7.6799999999999997  0.0000000000000000 16.3576450198781735   F   F   F
  0.0000000000000000  2.7152900397563422 16.3576450198781735   F   F   F
  3.8399999999999999  2.7152900397563422 16.3576450198781735   F   F   F
  7.6799999999999997  2.7152900397563422 16.3576450198781735   F   F   F
  1.9287538783043792  1.3560179378750448 17.7976670022834327   T   T   T
  5.7528011589055330  1.3533981768898757 17.7867964488475003   T   T   T
  9.6006198981872455  1.3537871752525812 17.7691916888385499   T   T   T
  1.9303516461708432  4.0672596815213051 17.7652243519802830   T   T   T
  5.7521537467336268  4.0699995235395177 17.7661884513755943   T   T   T
  9.5992837308771506  4.0692758237420890 17.7800176851007592   T   T   T
  0.0022784941246224  5.4267675084502631 19.0045594839839680   T   T   T
  3.8416862164564751  0.0160564710303502 19.0445481392476594   T   T   T
  7.6768874437298686  5.4301032819756703 19.0045651414782135   T   T   T
  0.0018634422765616  2.7097082153037317 19.0053916208881546   T   T   T
  3.8446730759535166  2.6896453893488474 19.0491031990048398   T   T   T
  7.6736585769815768  2.7088034266617824 19.0056992079334037   T   T   T
  3.8496675218558671  4.8229369225228274 21.0356530185568964   T   T   T
  3.8321314228070271  3.3232423209673705 21.0391723167742981   T   T   T
  2.9568401539059237  5.2794483815547952 21.4897461844297446   T   T   T
  4.7578999972734843  5.2603658189457310 21.4778855373709874   T   T   T
  2.9135698174303539  2.8947613953440916 21.4714381663507901   T   T   T
  4.7154583751072439  2.8652451823401845 21.5118867471008990   T   T   T
