SO2_Au111
 1.0000000000000000
     8.6549870017233435    0.0000000000000000    0.0000000000000000
     4.3274935008616717    7.4954386129165247    0.0000000000000000
     0.0000000000000000    0.0000000000000000   37.0667672948810178
 Au  S   O  
  36   1   2
Selective dynamics
Cartesian
  0.0000000000000000  0.0000000000000000 15.0000000000000000   F   F   F
  2.8849956672411143  0.0000000000000000 15.0000000000000000   F   F   F
  5.7699913344822287  0.0000000000000000 15.0000000000000000   F   F   F
  1.4424978336205572  2.4984795376388416 15.0000000000000000   F   F   F
  4.3274935008616717  2.4984795376388416 15.0000000000000000   F   F   F
  7.2124891681027856  2.4984795376388416 15.0000000000000000   F   F   F
  2.8849956672411143  4.9969590752776831 15.0000000000000000   F   F   F
  5.7699913344822287  4.9969590752776831 15.0000000000000000   F   F   F
  8.6549870017233435  4.9969590752776831 15.0000000000000000   F   F   F
  1.4424978336205572  0.8328265125462805 17.3555890982936738   F   F   F
  4.3274935008616717  0.8328265125462805 17.3555890982936738   F   F   F
  7.2124891681027865  0.8328265125462805 17.3555890982936738   F   F   F
  2.8849956672411143  3.3313060501851219 17.3555890982936738   F   F   F
  5.7699913344822287  3.3313060501851219 17.3555890982936738   F   F   F
  8.6549870017233435  3.3313060501851219 17.3555890982936738   F   F   F
  4.3274935008616717  5.8297855878239639 17.3555890982936738   F   F   F
  7.2124891681027856  5.8297855878239639 17.3555890982936738   F   F   F
 10.0974848353439004  5.8297855878239639 17.3555890982936738   F   F   F
  8.6565645664842492  1.6669950660232529 19.8102776720533988   T   T   T
  2.8839358553961829  1.6668040526337400 19.8084824093294145   T   T   T
  5.7699781957452210  1.6650884621927928 19.8074027806351225   T   T   T
 10.0976786556192462  4.1623690075614652 19.8089673951901588   T   T   T
  4.3270326724239254  4.1640499785278537 19.8056985755848913   T   T   T
  7.2119866253785556  4.1641161767515493 19.8081022638580251   T   T   T
 11.5400390703939539  6.6623666924521929 19.8079838775038439   T   T   T
  5.7697871689750917  6.6622043128145814 19.8084887881663541   T   T   T
  8.6559077269922149  6.6624639304346989 19.8069935632787093   T   T   T
 12.9788031088566473  7.4920376192263847 22.2986661008840628   T   T   T
  7.2145583751085685  7.4909383666310880 22.2973136406583841   T   T   T
  5.7711381970635669  0.0002712168272694 22.3127387736298033   T   T   T
  1.4445543880017289  2.4977351381746367 22.3204278261799836   T   T   T
  4.3286951300353014  2.4995573697613467 22.3097580367420640   T   T   T
  7.2076010649390945  2.4981512198767195 22.3011100985708772   T   T   T
  2.8856850053049889  4.9961758740556661 22.3131337846934699   T   T   T
  5.7692139350027691  4.9963837763162644 22.3094078851425159   T   T   T
  8.6537782346893533  4.9983150902433113 22.3044080017155366   T   T   T
  1.2245746093225378  2.0702761177930085 25.7633796415016434   T   T   T
  1.4477768846540187  0.6380630465774789 25.8194462117963965   T   T   T
  8.5172393047353268  2.5505465203699558 25.8947822616328232   T   T   T
