CH3OCH3_Cu111
 1.0000000000000000
    10.2106219203337467    0.0000000000000000    0.0000000000000000
     0.0000000000000000    8.8426579714472719    0.0000000000000000
     0.0000000000000000    0.0000000000000000   36.2527034153236514
 Cu  C   O   H  
  64   2   1   6
Selective dynamics
Cartesian
  0.0000000000000000  0.0000000000000000 15.0000000000000000   F   F   F
  2.5526554800834367  0.0000000000000000 15.0000000000000000   F   F   F
  5.1053109601668734  0.0000000000000000 15.0000000000000000   F   F   F
  7.6579664402503100  0.0000000000000000 15.0000000000000000   F   F   F
  1.2763277400417183  2.2106644928618180 15.0000000000000000   F   F   F
  3.8289832201251550  2.2106644928618180 15.0000000000000000   F   F   F
  6.3816387002085921  2.2106644928618180 15.0000000000000000   F   F   F
  8.9342941802920279  2.2106644928618180 15.0000000000000000   F   F   F
  0.0000000000000000  4.4213289857236360 15.0000000000000000   F   F   F
  2.5526554800834367  4.4213289857236360 15.0000000000000000   F   F   F
  5.1053109601668734  4.4213289857236360 15.0000000000000000   F   F   F
  7.6579664402503100  4.4213289857236360 15.0000000000000000   F   F   F
  1.2763277400417183  6.6319934785854526 15.0000000000000000   F   F   F
  3.8289832201251550  6.6319934785854526 15.0000000000000000   F   F   F
  6.3816387002085921  6.6319934785854526 15.0000000000000000   F   F   F
  8.9342941802920279  6.6319934785854526 15.0000000000000000   F   F   F
  1.2763277400417183  0.7368881642872727 17.0842344717745505   F   F   F
  3.8289832201251550  0.7368881642872727 17.0842344717745505   F   F   F
  6.3816387002085921  0.7368881642872727 17.0842344717745505   F   F   F
  8.9342941802920279  0.7368881642872727 17.0842344717745505   F   F   F
  0.0000000000000000  2.9475526571490906 17.0842344717745505   F   F   F
  2.5526554800834367  2.9475526571490906 17.0842344717745505   F   F   F
  5.1053109601668734  2.9475526571490906 17.0842344717745505   F   F   F
  7.6579664402503100  2.9475526571490906 17.0842344717745505   F   F   F
  1.2763277400417183  5.1582171500109091 17.0842344717745505   F   F   F
  3.8289832201251550  5.1582171500109091 17.0842344717745505   F   F   F
  6.3816387002085921  5.1582171500109091 17.0842344717745505   F   F   F
  8.9342941802920279  5.1582171500109091 17.0842344717745505   F   F   F
  0.0000000000000000  7.3688816428727266 17.0842344717745505   F   F   F
  2.5526554800834367  7.3688816428727266 17.0842344717745505   F   F   F
  5.1053109601668734  7.3688816428727266 17.0842344717745505   F   F   F
  7.6579664402503100  7.3688816428727266 17.0842344717745505   F   F   F
 10.2105321913865907  1.4737483434655725 19.1643041424406100   T   T   T
  2.5528157060287944  1.4732694556497101 19.1647343349252672   T   T   T
  5.1051294470362016  1.4735760977639896 19.1653882209122841   T   T   T
  7.6580179566921851  1.4736326660256658 19.1647705791276088   T   T   T
  1.2779457629395026  3.6853313515349013 19.1692453198503259   T   T   T
  3.8279981596456745  3.6850257948862262 19.1700721423140870   T   T   T
  6.3815893356444393  3.6844995758425658 19.1648979908479369   T   T   T
  8.9341419016276760  3.6842501195052990 19.1650331121150650   T   T   T
 10.2103274982265386  5.8951907792991634 19.1651090584188779   T   T   T
  2.5527053002051128  5.8934271263494740 19.1692625543150754   T   T   T
  5.1060163960412481  5.8953370448536688 19.1642925395127577   T   T   T
  7.6579843027813475  5.8953170038573681 19.1650957352388893   T   T   T
  1.2764785249889168  8.1057511375941456 19.1649484817474303   T   T   T
  3.8287271987735898  8.1056846015906352 19.1647978885008001   T   T   T
  6.3815773735734105  8.1059964424616613 19.1649839054112938   T   T   T
  8.9344606079756517  8.1058954208750382 19.1650868697739618   T   T   T
 10.2104110851354033  0.0007141679342076 21.2562895635535050   T   T   T
  2.5524184300913988  8.8425108733824143 21.2558800701011528   T   T   T
  5.1055898668729522  8.8418575489800126 21.2565083908602546   T   T   T
  7.6581375515604053  0.0000461874115173 21.2560505318101285   T   T   T
  1.2755227578863777  2.2091271441456990 21.2491652625932623   T   T   T
  3.8291569759425252  2.2088917555468397 21.2528198249343419   T   T   T
  6.3821605078099051  2.2101560110939031 21.2544649343482810   T   T   T
  8.9345546302434151  2.2105114950498250 21.2556865672327717   T   T   T
 10.2087414126292746  4.4215428832022328 21.2533050885233443   T   T   T
  2.5528601541953377  4.4210665018257442 21.2669838074326947   T   T   T
  5.1069601812789260  4.4221438635844184 21.2520266761901162   T   T   T
  7.6579535781452748  4.4209777687290579 21.2560658394038882   T   T   T
  1.2751994993669991  6.6332848812035081 21.2535972255917329   T   T   T
  3.8297475402358212  6.6329251577370432 21.2495444987559452   T   T   T
  6.3815827983534978  6.6321791445662868 21.2562210797561200   T   T   T
  8.9342466305614447  6.6322197903937425 21.2554485938680990   T   T   T
  2.3411482677366808  3.1045187124610867 25.3703667001403126   T   T   T
  3.6477095774879067  5.0787240948951515 25.3452449632456620   T   T   T
  2.7317397489763171  4.2558010446746479 24.6302259747574510   T   T   T
  1.5932519661847666  2.5576180657978318 24.7873254818684821   T   T   T
  3.2020931214727031  2.4442617048283175 25.5784543060454403   T   T   T
  1.8977760424985399  3.3881713764393888 26.3413657294631776   T   T   T
  4.6001811366216794  4.5524536539615399 25.5388484821152382   T   T   T
  3.2296381847849136  5.3849141925424009 26.3217214209046269   T   T   T
  3.8435316156365409  5.9757234484736186 24.7478028462007416   T   T   T
