C2H4_Ir111
 1.0000000000000000
    10.8611601590253706    0.0000000000000000    0.0000000000000000
     0.0000000000000000    9.4060406122874021    0.0000000000000000
     0.0000000000000000    0.0000000000000000   36.6510751010644924
 Ir  C   H  
  64   2   4
Selective dynamics
Cartesian
  0.0000000000000000  0.0000000000000000 15.0000000000000018   F   F   F
  2.7152900397563422  0.0000000000000000 15.0000000000000018   F   F   F
  5.4305800795126844  0.0000000000000000 15.0000000000000018   F   F   F
  8.1458701192690270  0.0000000000000000 15.0000000000000018   F   F   F
  1.3576450198781711  2.3515101530718505 15.0000000000000018   F   F   F
  4.0729350596345135  2.3515101530718505 15.0000000000000018   F   F   F
  6.7882250993908571  2.3515101530718505 15.0000000000000018   F   F   F
  9.5035151391471988  2.3515101530718505 15.0000000000000018   F   F   F
  0.0000000000000000  4.7030203061437010 15.0000000000000018   F   F   F
  2.7152900397563422  4.7030203061437010 15.0000000000000018   F   F   F
  5.4305800795126844  4.7030203061437010 15.0000000000000018   F   F   F
  8.1458701192690270  4.7030203061437010 15.0000000000000018   F   F   F
  1.3576450198781711  7.0545304592155516 15.0000000000000018   F   F   F
  4.0729350596345135  7.0545304592155516 15.0000000000000018   F   F   F
  6.7882250993908571  7.0545304592155516 15.0000000000000018   F   F   F
  9.5035151391471988  7.0545304592155516 15.0000000000000018   F   F   F
  1.3576450198781711  0.7838367176906168 17.2170250336881665   F   F   F
  4.0729350596345135  0.7838367176906168 17.2170250336881665   F   F   F
  6.7882250993908571  0.7838367176906168 17.2170250336881665   F   F   F
  9.5035151391471988  0.7838367176906168 17.2170250336881665   F   F   F
  0.0000000000000000  3.1353468707624672 17.2170250336881665   F   F   F
  2.7152900397563422  3.1353468707624672 17.2170250336881665   F   F   F
  5.4305800795126844  3.1353468707624672 17.2170250336881665   F   F   F
  8.1458701192690270  3.1353468707624672 17.2170250336881665   F   F   F
  1.3576450198781711  5.4868570238343182 17.2170250336881665   F   F   F
  4.0729350596345135  5.4868570238343182 17.2170250336881665   F   F   F
  6.7882250993908571  5.4868570238343182 17.2170250336881665   F   F   F
  9.5035151391471988  5.4868570238343182 17.2170250336881665   F   F   F
  0.0000000000000000  7.8383671769061687 17.2170250336881665   F   F   F
  2.7152900397563422  7.8383671769061687 17.2170250336881665   F   F   F
  5.4305800795126844  7.8383671769061687 17.2170250336881665   F   F   F
  8.1458701192690270  7.8383671769061687 17.2170250336881665   F   F   F
 10.8600258032235146  1.5710867709885246 19.4435549917682984   T   T   T
  2.7148596297749568  1.5727394886250710 19.4467516190379364   T   T   T
  5.4294233186374719  1.5729052862194344 19.4459827104110978   T   T   T
  8.1459658142604869  1.5690093697489913 19.4442520816755327   T   T   T
  1.3733454465120634  3.9289193005217289 19.4805276348536474   T   T   T
  4.0630239682923044  3.9284837627246358 19.4784731005874256   T   T   T
  6.7882929919996871  3.9175078732499284 19.4423345729968240   T   T   T
  9.5055844591685883  3.9163373581725041 19.4418871576361845   T   T   T
  0.0030995933944896  6.2676492305697034 19.4480158151668938   T   T   T
  2.7174340542346829  6.2581689429225387 19.4763153214694036   T   T   T
  5.4298501170006706  6.2693715550222651 19.4437493791541200   T   T   T
  8.1464601995197299  6.2716266991659255 19.4412921138397046   T   T   T
  1.3597151877976064  8.6191194966669826 19.4444768318288439   T   T   T
  4.0714549694944733  8.6216150743729774 19.4423331021045129   T   T   T
  6.7880153810291759  8.6235505853915981 19.4414620483218279   T   T   T
  9.5021442937206437  8.6230872718070586 19.4404992136271062   T   T   T
 10.8542041305442414  9.4017677346844497 21.6548913366507350   T   T   T
  2.7151644906357806  0.0031706031258113 21.6532271804785061   T   T   T
  5.4352620704201540  9.4054081523173210 21.6562123678142449   T   T   T
  8.1458639533715846  9.4048652503479797 21.6589488166931012   T   T   T
  1.3404166331553835  2.3350493317039751 21.6400005056670217   T   T   T
  4.0793577958692975  2.3424928780151695 21.6435018941931467   T   T   T
  6.7867694859333634  2.3503670993684440 21.6560051472622455   T   T   T
  9.5020043317107348  2.3506440156444302 21.6585614910076103   T   T   T
 10.8361072062408148  4.6970765184733958 21.6425106678198276   T   T   T
  2.7169942887229692  4.7005520511436956 21.8862063102848019   T   T   T
  5.4553086436310174  4.7116632923338893 21.6415710868886677   T   T   T
  8.1459102960254128  4.7051648505819275 21.6570743604810652   T   T   T
  1.3516676068387459  7.0629484773156230 21.6406068038681418   T   T   T
  4.0920249753533469  7.0690102317036239 21.6370075071950154   T   T   T
  6.7894483804866743  7.0548022672879496 21.6613614714089806   T   T   T
  9.5056875666019707  7.0546274663374184 21.6574181480062791   T   T   T
  2.4407112249571337  5.3671219576906344 23.9170355781838495   T   T   T
  2.9881165109305616  4.0287001555876190 23.9180530681389030   T   T   T
  1.3900818022117460  5.5094384393384104 24.1916875250603596   T   T   T
  3.0921882495513171  6.2080366067903920 24.1838587150385820   T   T   T
  2.3366124502974763  3.1925787149528486 24.1977999583096626   T   T   T
  4.0384989521624632  3.8902474479083171 24.1985743285603760   T   T   T
