NO_Au100
 1.0000000000000000
    11.5399826689644573    0.0000000000000000    0.0000000000000000
     0.0000000000000000   11.5399826689644573    0.0000000000000000
     0.0000000000000000    0.0000000000000000   36.1199999999999974
 Au  N   O  
  64   1   1
Selective dynamics
Cartesian
  1.4424978336205572  1.4424978336205572 14.9999999999999982   F   F   F
  4.3274935008616717  1.4424978336205572 14.9999999999999982   F   F   F
  7.2124891681027856  1.4424978336205572 14.9999999999999982   F   F   F
 10.0974848353439004  1.4424978336205572 14.9999999999999982   F   F   F
  1.4424978336205572  4.3274935008616717 14.9999999999999982   F   F   F
  4.3274935008616717  4.3274935008616717 14.9999999999999982   F   F   F
  7.2124891681027856  4.3274935008616717 14.9999999999999982   F   F   F
 10.0974848353439004  4.3274935008616717 14.9999999999999982   F   F   F
  1.4424978336205572  7.2124891681027856 14.9999999999999982   F   F   F
  4.3274935008616717  7.2124891681027856 14.9999999999999982   F   F   F
  7.2124891681027856  7.2124891681027856 14.9999999999999982   F   F   F
 10.0974848353439004  7.2124891681027856 14.9999999999999982   F   F   F
  1.4424978336205572 10.0974848353439004 14.9999999999999982   F   F   F
  4.3274935008616717 10.0974848353439004 14.9999999999999982   F   F   F
  7.2124891681027856 10.0974848353439004 14.9999999999999982   F   F   F
 10.0974848353439004 10.0974848353439004 14.9999999999999982   F   F   F
  0.0000000000000000  0.0000000000000000 17.0399999999999991   F   F   F
  2.8849956672411143  0.0000000000000000 17.0399999999999991   F   F   F
  5.7699913344822287  0.0000000000000000 17.0399999999999991   F   F   F
  8.6549870017233435  0.0000000000000000 17.0399999999999991   F   F   F
  0.0000000000000000  2.8849956672411143 17.0399999999999991   F   F   F
  2.8849956672411143  2.8849956672411143 17.0399999999999991   F   F   F
  5.7699913344822287  2.8849956672411143 17.0399999999999991   F   F   F
  8.6549870017233435  2.8849956672411143 17.0399999999999991   F   F   F
  0.0000000000000000  5.7699913344822287 17.0399999999999991   F   F   F
  2.8849956672411143  5.7699913344822287 17.0399999999999991   F   F   F
  5.7699913344822287  5.7699913344822287 17.0399999999999991   F   F   F
  8.6549870017233435  5.7699913344822287 17.0399999999999991   F   F   F
  0.0000000000000000  8.6549870017233435 17.0399999999999991   F   F   F
  2.8849956672411143  8.6549870017233435 17.0399999999999991   F   F   F
  5.7699913344822287  8.6549870017233435 17.0399999999999991   F   F   F
  8.6549870017233435  8.6549870017233435 17.0399999999999991   F   F   F
  1.4412726323387932  1.4451104567974025 19.1820864158374924   T   T   T
  4.3217832675520169  1.4430293745473604 19.1724605575186118   T   T   T
  7.2184827658118547  1.4416616379386689 19.1716006003836839   T   T   T
 10.0999917801725516  1.4454438446307107 19.1810718397411613   T   T   T
  1.4408204608150468  4.3243719758416654 19.1816726209658448   T   T   T
  4.3212296777199466  4.3256737347693486 19.1713537466989017   T   T   T
  7.2188633598759697  4.3277142601531207 19.1711372005208354   T   T   T
 10.1001166514073173  4.3243382866980795 19.1808915223027974   T   T   T
  1.4410356765954500  7.2025257742793647 19.1693550814854774   T   T   T
  4.3357958557970067  7.2195541540074739 19.1960787225134766   T   T   T
  7.2026100796020005  7.2229681222600268 19.2022953257696436   T   T   T
 10.1011050880893158  7.2013198466824333 19.1649451363874448   T   T   T
  1.4413553092724052 10.1077694297869201 19.1691990476863907   T   T   T
  4.3363199161128207 10.0892061760093590 19.1965945281719179   T   T   T
  7.2027354391264984 10.0861449981219415 19.2020978735875687   T   T   T
 10.1010884741301403 10.1088467478449964 19.1646717904819859   T   T   T
  0.0024759714405801  0.0004988555054811 21.3068597036863352   T   T   T
  2.8870764524079111  0.0006722804888371 21.3081143630937007   T   T   T
  5.7698641431309428  0.0436285539008197 21.2915118525432518   T   T   T
  8.6580842761417696  0.0060315169657495 21.3016636800963752   T   T   T
 11.5393940044573284  2.8849370814323221 21.3057188662116346   T   T   T
  2.8852561212537045  2.8842802778236103 21.3056232632229197   T   T   T
  5.7709529487064577  2.8841005085758957 21.3114753872785379   T   T   T
  8.6543337310364805  2.8847736716939769 21.3065111224701020   T   T   T
  0.0019310544737814  5.7694724272449669 21.3070105305739546   T   T   T
  2.8852688005427813  5.7681211572204605 21.3066845065951860   T   T   T
  5.7685127121567321  5.7251521449635590 21.2885217969159193   T   T   T
  8.6581789062022363  5.7639953801865857 21.3008467175885379   T   T   T
 11.5376166466401795  8.6550516352771236 21.3126292232962520   T   T   T
  2.8168440499152614  8.6550659676973503 21.2811603939223666   T   T   T
  5.7419283245358503  8.6574482052872224 21.3658999297030441   T   T   T
  8.7153804296178450  8.6555556673721359 21.2703326070954510   T   T   T
  5.7676852248030892  8.6118066873383068 23.4927500265449822   T   T   T
  6.8140798720290139  8.5996823700306244 24.0365938821085159   T   T   T
