CH4_Ag100
 1.0000000000000000
     8.6762002051589384    0.0000000000000000    0.0000000000000000
     0.0000000000000000    8.6762002051589384    0.0000000000000000
     0.0000000000000000    0.0000000000000000   36.1349999999999980
 Ag  C   H  
  36   1   4
Selective dynamics
Cartesian
  1.4460333675264894  1.4460333675264894 15.0000000000000000   F   F   F
  4.3381001025794692  1.4460333675264894 15.0000000000000000   F   F   F
  7.2301668376324475  1.4460333675264894 15.0000000000000000   F   F   F
  1.4460333675264894  4.3381001025794692 15.0000000000000000   F   F   F
  4.3381001025794692  4.3381001025794692 15.0000000000000000   F   F   F
  7.2301668376324475  4.3381001025794692 15.0000000000000000   F   F   F
  1.4460333675264894  7.2301668376324475 15.0000000000000000   F   F   F
  4.3381001025794692  7.2301668376324475 15.0000000000000000   F   F   F
  7.2301668376324475  7.2301668376324475 15.0000000000000000   F   F   F
  0.0000000000000000  0.0000000000000000 17.0450000000000017   F   F   F
  2.8920667350529787  0.0000000000000000 17.0450000000000017   F   F   F
  5.7841334701059575  0.0000000000000000 17.0450000000000017   F   F   F
  0.0000000000000000  2.8920667350529787 17.0450000000000017   F   F   F
  2.8920667350529787  2.8920667350529787 17.0450000000000017   F   F   F
  5.7841334701059575  2.8920667350529787 17.0450000000000017   F   F   F
  0.0000000000000000  5.7841334701059575 17.0450000000000017   F   F   F
  2.8920667350529787  5.7841334701059575 17.0450000000000017   F   F   F
  5.7841334701059575  5.7841334701059575 17.0450000000000017   F   F   F
  1.4459268186761132  1.4460475282272622 19.1707569223058449   T   T   T
  4.3382046789836224  1.4460479893942246 19.1707748709314423   T   T   T
  7.2301577413208911  1.4460260232302800 19.1709006555807164   T   T   T
  1.4461894749794926  4.3382357751302152 19.1714513199822001   T   T   T
  4.3379618966018008  4.3382283444868737 19.1714437957669546   T   T   T
  7.2301653111559485  4.3379909187864536 19.1707898160539543   T   T   T
  1.4461762106401601  7.2300116986426675 19.1713951012158503   T   T   T
  4.3379566572736108  7.2299987359364737 19.1714321608672265   T   T   T
  7.2301654198463376  7.2302857220316259 19.1707332276779461   T   T   T
  0.0004196918220968  8.6758025610347111 21.2506129137537556   T   T   T
  2.8921054228497378  0.0001359722252963 21.2502208826621519   T   T   T
  5.7837043508938244  8.6758126418437094 21.2505899454869258   T   T   T
  0.0003964076472200  2.8925344738986776 21.2505807616479920   T   T   T
  2.8921120430679945  2.8919426849657244 21.2496643810585475   T   T   T
  5.7836927756513985  2.8925473868383520 21.2505954883939587   T   T   T
  8.6759814909833608  5.7840294710600562 21.2499959486524332   T   T   T
  2.8920757345633930  5.7840735260517926 21.2505372483696711   T   T   T
  5.7842574248520062  5.7840316437381283 21.2498199333899187   T   T   T
  2.8938716573190941  5.6393493036256954 24.8983121738378976   T   T   T
  2.8869590471237916  5.6659433700675796 25.9964664479274141   T   T   T
  3.8567868213359313  6.0139845794713302 24.5347858274156785   T   T   T
  2.0834301965907507  6.2700925823452085 24.5172657608648947   T   T   T
  2.7482940252248027  4.6071879450878424 24.5620399125847229   T   T   T
