NH3_Pd110
 1.0000000000000000
    11.6699999999999999    0.0000000000000000    0.0000000000000000
     0.0000000000000000    5.5012907576313399    0.0000000000000000
     0.0000000000000000    0.0000000000000000   34.1259680682235071
 Pd  N   H  
  24   1   3
Selective dynamics
Cartesian
  1.9449999999999998  1.3753226894078348 14.9999999999999929   F   F   F
  5.8349999999999991  1.3753226894078348 14.9999999999999929   F   F   F
  9.7249999999999996  1.3753226894078348 14.9999999999999929   F   F   F
  1.9449999999999998  4.1259680682235054 14.9999999999999929   F   F   F
  5.8349999999999991  4.1259680682235054 14.9999999999999929   F   F   F
  9.7249999999999996  4.1259680682235054 14.9999999999999929   F   F   F
  0.0000000000000000  0.0000000000000000 16.3753226894078345   F   F   F
  3.8899999999999997  0.0000000000000000 16.3753226894078345   F   F   F
  7.7799999999999994  0.0000000000000000 16.3753226894078345   F   F   F
  0.0000000000000000  2.7506453788156695 16.3753226894078345   F   F   F
  3.8899999999999997  2.7506453788156695 16.3753226894078345   F   F   F
  7.7799999999999994  2.7506453788156695 16.3753226894078345   F   F   F
  1.9428319389964490  1.3717603679042958 17.7965380618163103   T   T   T
  5.8345486486981537  1.3734040804664545 17.8284286512252024   T   T   T
  9.7318030265793851  1.3725309738207050 17.8276569165158207   T   T   T
  1.9428234575612475  4.1232892954585374 17.7973712143447855   T   T   T
  5.8350818892049778  4.1216928542989653 17.8294485146602604   T   T   T
  9.7322908398037526  4.1278673894902367 17.8273315241795594   T   T   T
  0.0261691628428046  5.5004864253200747 19.1718971949265757   T   T   T
  3.8702896747389306  5.4939684825004083 19.1527745613954714   T   T   T
  7.7729166238176699  5.4993527332009000 19.1771799144965343   T   T   T
  0.0237375308668703  2.7493946915603082 19.1704913079324513   T   T   T
  3.8217842216995312  2.7440246145129108 19.2237493993522008   T   T   T
  7.8008610197911921  2.7487875812698115 19.1631595987175238   T   T   T
  4.7269906939798902  2.7297607658332872 21.1334648557571363   T   T   T
  4.4981499719668596  3.5815574498052838 21.6521964268299705   T   T   T
  4.4246612589884862  1.9081886795474488 21.6629048578198677   T   T   T
  5.7420782674193482  2.6862703473619782 20.9821549030079773   T   T   T
