CH4_Cu111
 1.0000000000000000
    10.2106219203337467    0.0000000000000000    0.0000000000000000
     0.0000000000000000    8.8426579714472719    0.0000000000000000
     0.0000000000000000    0.0000000000000000   36.2527034153236514
 Cu  C   H  
  64   1   4
Selective dynamics
Cartesian
  0.0000000000000000  0.0000000000000000 15.0000000000000000   F   F   F
  2.5526554800834367  0.0000000000000000 15.0000000000000000   F   F   F
  5.1053109601668734  0.0000000000000000 15.0000000000000000   F   F   F
  7.6579664402503100  0.0000000000000000 15.0000000000000000   F   F   F
  1.2763277400417183  2.2106644928618180 15.0000000000000000   F   F   F
  3.8289832201251550  2.2106644928618180 15.0000000000000000   F   F   F
  6.3816387002085921  2.2106644928618180 15.0000000000000000   F   F   F
  8.9342941802920279  2.2106644928618180 15.0000000000000000   F   F   F
  0.0000000000000000  4.4213289857236360 15.0000000000000000   F   F   F
  2.5526554800834367  4.4213289857236360 15.0000000000000000   F   F   F
  5.1053109601668734  4.4213289857236360 15.0000000000000000   F   F   F
  7.6579664402503100  4.4213289857236360 15.0000000000000000   F   F   F
  1.2763277400417183  6.6319934785854526 15.0000000000000000   F   F   F
  3.8289832201251550  6.6319934785854526 15.0000000000000000   F   F   F
  6.3816387002085921  6.6319934785854526 15.0000000000000000   F   F   F
  8.9342941802920279  6.6319934785854526 15.0000000000000000   F   F   F
  1.2763277400417183  0.7368881642872727 17.0842344717745505   F   F   F
  3.8289832201251550  0.7368881642872727 17.0842344717745505   F   F   F
  6.3816387002085921  0.7368881642872727 17.0842344717745505   F   F   F
  8.9342941802920279  0.7368881642872727 17.0842344717745505   F   F   F
  0.0000000000000000  2.9475526571490906 17.0842344717745505   F   F   F
  2.5526554800834367  2.9475526571490906 17.0842344717745505   F   F   F
  5.1053109601668734  2.9475526571490906 17.0842344717745505   F   F   F
  7.6579664402503100  2.9475526571490906 17.0842344717745505   F   F   F
  1.2763277400417183  5.1582171500109091 17.0842344717745505   F   F   F
  3.8289832201251550  5.1582171500109091 17.0842344717745505   F   F   F
  6.3816387002085921  5.1582171500109091 17.0842344717745505   F   F   F
  8.9342941802920279  5.1582171500109091 17.0842344717745505   F   F   F
  0.0000000000000000  7.3688816428727266 17.0842344717745505   F   F   F
  2.5526554800834367  7.3688816428727266 17.0842344717745505   F   F   F
  5.1053109601668734  7.3688816428727266 17.0842344717745505   F   F   F
  7.6579664402503100  7.3688816428727266 17.0842344717745505   F   F   F
 10.2105106385939166  1.4737228317423388 19.1670667380519681   T   T   T
  2.5526401902955196  1.4737975493613691 19.1676227808531401   T   T   T
  5.1053717132226195  1.4737780579451651 19.1674834207722355   T   T   T
  7.6580532546698779  1.4737586921485193 19.1671382762931160   T   T   T
  1.2763745107772246  3.6844043593041906 19.1676347933754059   T   T   T
  3.8289421219646389  3.6844044275803394 19.1683497542920946   T   T   T
  6.3816568259042690  3.6843915284829749 19.1674039742923199   T   T   T
  8.9342376207596352  3.6844977853892624 19.1671155899329051   T   T   T
 10.2104659418614787  5.8951844101764630 19.1671005951509876   T   T   T
  2.5526842782112769  5.8951182509340345 19.1675442843477803   T   T   T
  5.1053050167428982  5.8951439067500111 19.1674453823447415   T   T   T
  7.6581106379232189  5.8952007758407641 19.1670617923412081   T   T   T
  1.2762732412148319  8.1057363680281131 19.1671183898671877   T   T   T
  3.8289841009123160  8.1056953833220771 19.1672002383667568   T   T   T
  6.3816868860744176  8.1057473818525203 19.1671280601083325   T   T   T
  8.9343061922000420  8.1057970314587013 19.1670591496911555   T   T   T
  0.0000276761517924  8.8426327092079493 21.2539061542645236   T   T   T
  2.5526524124029133  0.0001898024879717 21.2539871878125126   T   T   T
  5.1052761990275775  0.0002463121343391 21.2540141242141019   T   T   T
  7.6579052941814654  0.0000023411503699 21.2538928103047340   T   T   T
  1.2763588402163044  2.2106887590224984 21.2526056619378139   T   T   T
  3.8288319915365832  2.2110474039419676 21.2527806830988162   T   T   T
  6.3816400239829392  2.2106996723147780 21.2532415582369225   T   T   T
  8.9342600442690294  2.2106946155759322 21.2539739599891782   T   T   T
  0.0001481447392995  4.4212487890358032 21.2538332312313898   T   T   T
  2.5528826294916653  4.4210396387879447 21.2527877681183206   T   T   T
  5.1050909419383999  4.4212125039932912 21.2528025937305252   T   T   T
  7.6576383018656093  4.4211697174795699 21.2540964759118829   T   T   T
  1.2764509272007378  6.6318006330306005 21.2539018699310702   T   T   T
  3.8290155055101538  6.6319109577661131 21.2530895273032883   T   T   T
  6.3814223560017549  6.6318172722978135 21.2540852669441307   T   T   T
  8.9343120030819119  6.6320581355758881 21.2537518586797169   T   T   T
  3.5235276610734583  3.5684983597871724 24.9106873425652928   T   T   T
  3.5410868946311895  4.6038028317385313 24.5583730056543139   T   T   T
  2.6267241856297057  3.0669100121839428 24.5357443653341356   T   T   T
  3.5108870086877175  3.5593658825000616 26.0079692708326462   T   T   T
  4.4149445702526382  3.0436175304993549 24.5554028507214426   T   T   T
