NH3_Au100
 1.0000000000000000
    11.5399826689644573    0.0000000000000000    0.0000000000000000
     0.0000000000000000   11.5399826689644573    0.0000000000000000
     0.0000000000000000    0.0000000000000000   36.1199999999999974
 Au  N   H  
  64   1   3
Selective dynamics
Cartesian
  1.4424978336205572  1.4424978336205572 14.9999999999999982   F   F   F
  4.3274935008616717  1.4424978336205572 14.9999999999999982   F   F   F
  7.2124891681027856  1.4424978336205572 14.9999999999999982   F   F   F
 10.0974848353439004  1.4424978336205572 14.9999999999999982   F   F   F
  1.4424978336205572  4.3274935008616717 14.9999999999999982   F   F   F
  4.3274935008616717  4.3274935008616717 14.9999999999999982   F   F   F
  7.2124891681027856  4.3274935008616717 14.9999999999999982   F   F   F
 10.0974848353439004  4.3274935008616717 14.9999999999999982   F   F   F
  1.4424978336205572  7.2124891681027856 14.9999999999999982   F   F   F
  4.3274935008616717  7.2124891681027856 14.9999999999999982   F   F   F
  7.2124891681027856  7.2124891681027856 14.9999999999999982   F   F   F
 10.0974848353439004  7.2124891681027856 14.9999999999999982   F   F   F
  1.4424978336205572 10.0974848353439004 14.9999999999999982   F   F   F
  4.3274935008616717 10.0974848353439004 14.9999999999999982   F   F   F
  7.2124891681027856 10.0974848353439004 14.9999999999999982   F   F   F
 10.0974848353439004 10.0974848353439004 14.9999999999999982   F   F   F
  0.0000000000000000  0.0000000000000000 17.0399999999999991   F   F   F
  2.8849956672411143  0.0000000000000000 17.0399999999999991   F   F   F
  5.7699913344822287  0.0000000000000000 17.0399999999999991   F   F   F
  8.6549870017233435  0.0000000000000000 17.0399999999999991   F   F   F
  0.0000000000000000  2.8849956672411143 17.0399999999999991   F   F   F
  2.8849956672411143  2.8849956672411143 17.0399999999999991   F   F   F
  5.7699913344822287  2.8849956672411143 17.0399999999999991   F   F   F
  8.6549870017233435  2.8849956672411143 17.0399999999999991   F   F   F
  0.0000000000000000  5.7699913344822287 17.0399999999999991   F   F   F
  2.8849956672411143  5.7699913344822287 17.0399999999999991   F   F   F
  5.7699913344822287  5.7699913344822287 17.0399999999999991   F   F   F
  8.6549870017233435  5.7699913344822287 17.0399999999999991   F   F   F
  0.0000000000000000  8.6549870017233435 17.0399999999999991   F   F   F
  2.8849956672411143  8.6549870017233435 17.0399999999999991   F   F   F
  5.7699913344822287  8.6549870017233435 17.0399999999999991   F   F   F
  8.6549870017233435  8.6549870017233435 17.0399999999999991   F   F   F
  1.4350346921286370  1.4413086934111738 19.1709160215437535   T   T   T
  4.3342873437133909  1.4413520324317088 19.1720665418327982   T   T   T
  7.2137288868080933  1.4412010926557692 19.1837325739927742   T   T   T
 10.0967165800042693  1.4420167993526414 19.1842002209566402   T   T   T
  1.4549840592649872  4.3378952920829787 19.2010077087681559   T   T   T
  4.3184908994210662  4.3361522111133679 19.2014815644146104   T   T   T
  7.2146057343980017  4.3199760231916722 19.1703163376563488   T   T   T
 10.0992266848195147  4.3226285103201523 19.1751877909467190   T   T   T
  1.4576976911764166  7.1973799544369275 19.2053639529173630   T   T   T
  4.3171417201087268  7.1999714834616269 19.2032734917764074   T   T   T
  7.2141714709246028  7.2206139728564338 19.1696916504703836   T   T   T
 10.1001757705306279  7.2176328092902846 19.1746366011122262   T   T   T
  1.4372360906518100 10.0950208399274484 19.1743149523377276   T   T   T
  4.3322072229960567 10.0956505562505878 19.1749583277939983   T   T   T
  7.2129191041060867 10.0983505502748265 19.1843478442808504   T   T   T
 10.0973938247337145 10.0975728240455691 19.1844574711577742   T   T   T
 11.5396357293055143 11.5392164898317304 21.3050426819562837   T   T   T
  2.8851501053787225 11.5354310046187845 21.3094973115215076   T   T   T
  5.7700989356356862 11.5389361890951445 21.3046903058649661   T   T   T
  8.6549546947096960  0.0002817986796562 21.3059913015523108   T   T   T
  0.0024320830565462  2.8863870784732000 21.3106162954517622   T   T   T
  2.8827978999190300  2.8287452519109850 21.2845069588708107   T   T   T
  5.7694751809225444  2.8862774938121150 21.3095338176187710   T   T   T
  8.6561507401155637  2.8849915379558904 21.3054273412553634   T   T   T
 11.4919017627378679  5.7700000588543094 21.2986405085047963   T   T   T
  2.8677195972410674  5.7795003987614297 21.3654991347199577   T   T   T
  5.8290588511566002  5.7711224167616830 21.2798545836121420   T   T   T
  8.6601077226326417  5.7698396934557739 21.3099465894850937   T   T   T
  0.0029647300471755  8.6524651513408504 21.3113412221564111   T   T   T
  2.8842591652956240  8.7012610961400547 21.2986930593327948   T   T   T
  5.7686998001363259  8.6523263720843868 21.3109181383705106   T   T   T
  8.6562663580608028  8.6553331189321501 21.3047421893903923   T   T   T
  3.1139027202945031  5.5710891160160552 23.7085968016743855   T   T   T
  4.1173940784921417  5.5584250683070220 23.9054646906336465   T   T   T
  2.6816962682504153  6.3417062757727605 24.2237363341580973   T   T   T
  2.7084479597648810  4.6855319049035220 24.0199519419256227   T   T   T
