CO_Ir111
 1.0000000000000000
    10.8611601590253706    0.0000000000000000    0.0000000000000000
     0.0000000000000000    9.4060406122874021    0.0000000000000000
     0.0000000000000000    0.0000000000000000   36.6510751010644924
 Ir  O   C  
  64   1   1
Selective dynamics
Cartesian
  0.0000000000000000  0.0000000000000000 15.0000000000000018   F   F   F
  2.7152900397563422  0.0000000000000000 15.0000000000000018   F   F   F
  5.4305800795126844  0.0000000000000000 15.0000000000000018   F   F   F
  8.1458701192690270  0.0000000000000000 15.0000000000000018   F   F   F
  1.3576450198781711  2.3515101530718505 15.0000000000000018   F   F   F
  4.0729350596345135  2.3515101530718505 15.0000000000000018   F   F   F
  6.7882250993908571  2.3515101530718505 15.0000000000000018   F   F   F
  9.5035151391471988  2.3515101530718505 15.0000000000000018   F   F   F
  0.0000000000000000  4.7030203061437010 15.0000000000000018   F   F   F
  2.7152900397563422  4.7030203061437010 15.0000000000000018   F   F   F
  5.4305800795126844  4.7030203061437010 15.0000000000000018   F   F   F
  8.1458701192690270  4.7030203061437010 15.0000000000000018   F   F   F
  1.3576450198781711  7.0545304592155516 15.0000000000000018   F   F   F
  4.0729350596345135  7.0545304592155516 15.0000000000000018   F   F   F
  6.7882250993908571  7.0545304592155516 15.0000000000000018   F   F   F
  9.5035151391471988  7.0545304592155516 15.0000000000000018   F   F   F
  1.3576450198781711  0.7838367176906168 17.2170250336881665   F   F   F
  4.0729350596345135  0.7838367176906168 17.2170250336881665   F   F   F
  6.7882250993908571  0.7838367176906168 17.2170250336881665   F   F   F
  9.5035151391471988  0.7838367176906168 17.2170250336881665   F   F   F
  0.0000000000000000  3.1353468707624672 17.2170250336881665   F   F   F
  2.7152900397563422  3.1353468707624672 17.2170250336881665   F   F   F
  5.4305800795126844  3.1353468707624672 17.2170250336881665   F   F   F
  8.1458701192690270  3.1353468707624672 17.2170250336881665   F   F   F
  1.3576450198781711  5.4868570238343182 17.2170250336881665   F   F   F
  4.0729350596345135  5.4868570238343182 17.2170250336881665   F   F   F
  6.7882250993908571  5.4868570238343182 17.2170250336881665   F   F   F
  9.5035151391471988  5.4868570238343182 17.2170250336881665   F   F   F
  0.0000000000000000  7.8383671769061687 17.2170250336881665   F   F   F
  2.7152900397563422  7.8383671769061687 17.2170250336881665   F   F   F
  5.4305800795126844  7.8383671769061687 17.2170250336881665   F   F   F
  8.1458701192690270  7.8383671769061687 17.2170250336881665   F   F   F
  0.0046135353191868  1.5699921038907152 19.4485905638147187   T   T   T
  2.7209584170063033  1.5685553595661086 19.4436892364379368   T   T   T
  5.4330679716952952  1.5682965283478350 19.4435332548829045   T   T   T
  8.1491891922584792  1.5696620227069542 19.4485595452457787   T   T   T
  1.3677442338423931  3.9218248643712528 19.4510522074826717   T   T   T
  4.0762821426947538  3.9219044450653606 19.4620111899880044   T   T   T
  6.7856866639442099  3.9213168577531921 19.4498360248353954   T   T   T
  9.5071028661262922  3.9172675658528422 19.4510841860432002   T   T   T
  0.0061936417859469  6.2680579512505590 19.4427236091866362   T   T   T
  2.7212794012245225  6.2674380762853819 19.4600946868135054   T   T   T
  5.4313273839100127  6.2676486003936072 19.4604118620098063   T   T   T
  8.1464914345056041  6.2678259737899191 19.4419777476681901   T   T   T
  1.3638821552184652  8.6191379415108837 19.4413492486792059   T   T   T
  4.0768695982767964  8.6127473647857933 19.4520177292632077   T   T   T
  6.7897462839560871  8.6192832941494277 19.4412515316585228   T   T   T
  9.5073186415247530  8.6230336685338926 19.4424513140678350   T   T   T
  0.0065139325823135  0.0016392932635111 21.6585099906338456   T   T   T
  2.7184894943840052  9.3950720070002909 21.6576970535952320   T   T   T
  5.4389655041616543  9.3941716900021728 21.6579036171616224   T   T   T
  8.1512317467412156  0.0018818820345353 21.6586889164279022   T   T   T
  1.3666218383376492  2.3572062090974044 21.6575282399238347   T   T   T
  4.0781993813832713  2.3172286092101424 21.6450808077283199   T   T   T
  6.7914696906472196  2.3564284864563056 21.6582594527405163   T   T   T
  9.5093375312488302  2.3497816510597720 21.6605676290830012   T   T   T
  0.0152491304206007  4.7049380645594034 21.6579130781059739   T   T   T
  2.7233717634424011  4.7040163350477995 21.7281533551960280   T   T   T
  5.4346433316485534  4.7024915685156206 21.7200092924470098   T   T   T
  8.1410564457645389  4.7048052572585863 21.6585257617699085   T   T   T
  1.3334787439748848  7.0695415632182250 21.6465055743676693   T   T   T
  4.0780412394925074  7.0489982134269988 21.7199438710868513   T   T   T
  6.8222811939667372  7.0701854750430346 21.6456432557226037   T   T   T
  9.5090764381693926  7.0500827395430994 21.6607066625891349   T   T   T
  4.0960111100005330  5.4966215697303431 24.3671940713998829   T   T   T
  4.0840531597715923  5.4893873606011407 23.1645788817138829   T   T   T
