H2CO_Ag110
 1.0000000000000000
    12.2699999999999996    0.0000000000000000    0.0000000000000000
     0.0000000000000000    5.7841334701059592    0.0000000000000000
     0.0000000000000000    0.0000000000000000   34.3381001025794674
 Ag  C   O   H  
  24   1   1   2
Selective dynamics
Cartesian
  2.0449999999999999  1.4460333675264898 15.0000000000000053   F   F   F
  6.1349999999999998  1.4460333675264898 15.0000000000000053   F   F   F
 10.2249999999999979  1.4460333675264898 15.0000000000000053   F   F   F
  2.0449999999999999  4.3381001025794692 15.0000000000000053   F   F   F
  6.1349999999999998  4.3381001025794692 15.0000000000000053   F   F   F
 10.2249999999999979  4.3381001025794692 15.0000000000000053   F   F   F
  0.0000000000000000  0.0000000000000000 16.4460333675264891   F   F   F
  4.0899999999999999  0.0000000000000000 16.4460333675264891   F   F   F
  8.1799999999999997  0.0000000000000000 16.4460333675264891   F   F   F
  0.0000000000000000  2.8920667350529796 16.4460333675264891   F   F   F
  4.0899999999999999  2.8920667350529796 16.4460333675264891   F   F   F
  8.1799999999999997  2.8920667350529796 16.4460333675264891   F   F   F
  2.0465585447686356  1.4520402101756484 17.9782502338511101   T   T   T
  6.1368934808450843  1.4472874764415911 17.9731219993334186   T   T   T
 10.2264274956180063  1.4459079876561809 17.9834757851152141   T   T   T
  2.0476950113065793  4.3309204191834541 17.9816726360279269   T   T   T
  6.1368390476777224  4.3385109105869617 17.9778425045942747   T   T   T
 10.2272340627172476  4.3389442824019513 17.9824964622139447   T   T   T
  0.0034029522797055  0.0000849318293743 19.3552326464903715   T   T   T
  4.0807721982524292  5.7792274914547388 19.3225496289145049   T   T   T
  8.1780204773067702  0.0004158610489821 19.3605344959082828   T   T   T
  0.0025765866954672  2.8914676099294825 19.3585038877484337   T   T   T
  4.0743570198919814  2.8979282368923625 19.3903933261833430   T   T   T
  8.1885459602137765  2.8942437514402024 19.3592933381161281   T   T   T
  5.6115992298240460  3.4690678718338566 22.1981909841805773   T   T   T
  4.8146542381066029  2.6922643232428625 21.6681094718277691   T   T   T
  6.0126377836804057  3.2305419343053896 23.1989537415244875   T   T   T
  5.9143513466024240  4.4057308315191612 21.6850478979613293   T   T   T
