N2_Cu111
 1.0000000000000000
    10.2106219203337467    0.0000000000000000    0.0000000000000000
     0.0000000000000000    8.8426579714472719    0.0000000000000000
     0.0000000000000000    0.0000000000000000   36.2527034153236514
 Cu  N  
  64   2
Selective dynamics
Cartesian
  0.0000000000000000  0.0000000000000000 15.0000000000000000   F   F   F
  2.5526554800834367  0.0000000000000000 15.0000000000000000   F   F   F
  5.1053109601668734  0.0000000000000000 15.0000000000000000   F   F   F
  7.6579664402503100  0.0000000000000000 15.0000000000000000   F   F   F
  1.2763277400417183  2.2106644928618180 15.0000000000000000   F   F   F
  3.8289832201251550  2.2106644928618180 15.0000000000000000   F   F   F
  6.3816387002085921  2.2106644928618180 15.0000000000000000   F   F   F
  8.9342941802920279  2.2106644928618180 15.0000000000000000   F   F   F
  0.0000000000000000  4.4213289857236360 15.0000000000000000   F   F   F
  2.5526554800834367  4.4213289857236360 15.0000000000000000   F   F   F
  5.1053109601668734  4.4213289857236360 15.0000000000000000   F   F   F
  7.6579664402503100  4.4213289857236360 15.0000000000000000   F   F   F
  1.2763277400417183  6.6319934785854526 15.0000000000000000   F   F   F
  3.8289832201251550  6.6319934785854526 15.0000000000000000   F   F   F
  6.3816387002085921  6.6319934785854526 15.0000000000000000   F   F   F
  8.9342941802920279  6.6319934785854526 15.0000000000000000   F   F   F
  1.2763277400417183  0.7368881642872727 17.0842344717745505   F   F   F
  3.8289832201251550  0.7368881642872727 17.0842344717745505   F   F   F
  6.3816387002085921  0.7368881642872727 17.0842344717745505   F   F   F
  8.9342941802920279  0.7368881642872727 17.0842344717745505   F   F   F
  0.0000000000000000  2.9475526571490906 17.0842344717745505   F   F   F
  2.5526554800834367  2.9475526571490906 17.0842344717745505   F   F   F
  5.1053109601668734  2.9475526571490906 17.0842344717745505   F   F   F
  7.6579664402503100  2.9475526571490906 17.0842344717745505   F   F   F
  1.2763277400417183  5.1582171500109091 17.0842344717745505   F   F   F
  3.8289832201251550  5.1582171500109091 17.0842344717745505   F   F   F
  6.3816387002085921  5.1582171500109091 17.0842344717745505   F   F   F
  8.9342941802920279  5.1582171500109091 17.0842344717745505   F   F   F
  0.0000000000000000  7.3688816428727266 17.0842344717745505   F   F   F
  2.5526554800834367  7.3688816428727266 17.0842344717745505   F   F   F
  5.1053109601668734  7.3688816428727266 17.0842344717745505   F   F   F
  7.6579664402503100  7.3688816428727266 17.0842344717745505   F   F   F
  0.0001271993091920  1.4738080011040726 19.1650789875278811   T   T   T
  2.5527933190606178  1.4739545514528984 19.1651570352989467   T   T   T
  5.1051928274522105  1.4739502348965130 19.1651622511552588   T   T   T
  7.6578114159076476  1.4738341861494371 19.1651031525476085   T   T   T
  1.2765647944857226  3.6845048596739267 19.1653477518219511   T   T   T
  3.8290101520488977  3.6844582821117484 19.1652457824197420   T   T   T
  6.3814202258606247  3.6844912241160221 19.1653618192679076   T   T   T
  8.9342773226173104  3.6844437780893982 19.1651101955163234   T   T   T
  0.0000909038106120  5.8950564099763065 19.1651834751974981   T   T   T
  2.5527933045449753  5.8949686265742445 19.1653019225692063   T   T   T
  5.1051886478612483  5.8949390269965907 19.1652855418461101   T   T   T
  7.6578729786606798  5.8950973048560664 19.1651767438692957   T   T   T
  1.2763743555333229  8.1057226462998830 19.1650963070751637   T   T   T
  3.8289920183783566  8.1055984308905558 19.1651449350908081   T   T   T
  6.3815972839579471  8.1057192949475549 19.1650702557106776   T   T   T
  8.9342877219288930  8.1057437685577405 19.1649686136244100   T   T   T
  0.0001292400060905  0.0000244797527179 21.2552236033801449   T   T   T
  2.5526366999588559  8.8426200127298902 21.2552222429573625   T   T   T
  5.1053137444641852  0.0000340829352404 21.2552398434065175   T   T   T
  7.6578713081329619  0.0000736135450860 21.2552158804701889   T   T   T
  1.2766877197764337  2.2110462209233828 21.2560128967299349   T   T   T
  3.8290161756576544  2.2111191466922269 21.2549145999651508   T   T   T
  6.3815428885523984  2.2108387929383753 21.2554831328419844   T   T   T
  8.9342737505388499  2.2107118899122855 21.2550825494806723   T   T   T
  0.0001891369793916  4.4213036382155364 21.2554902562830570   T   T   T
  2.5530931313619445  4.4212931722713513 21.2535395703065575   T   T   T
  5.1048379284358214  4.4213273533514812 21.2533112704405234   T   T   T
  7.6580199410251142  4.4212129266830722 21.2552379460176653   T   T   T
  1.2766415578206689  6.6317057579182306 21.2557800932124614   T   T   T
  3.8290065098510255  6.6315901893470883 21.2551829366915364   T   T   T
  6.3814032747065985  6.6317210199460357 21.2557799482188692   T   T   T
  8.9343190761036215  6.6319460216681376 21.2551413817580048   T   T   T
  4.5329739120606831  4.2877178749768428 25.6020672962298228   T   T   T
  3.4303517071124592  4.4342595637731543 25.6063132823437876   T   T   T
