SO2_Ir110
 1.0000000000000000
    11.5199999999999996    0.0000000000000000    0.0000000000000000
     0.0000000000000000    5.4305800795126853    0.0000000000000000
     0.0000000000000000    0.0000000000000000   34.0729350596345171
 Ir  S   O  
  24   1   2
Selective dynamics
Cartesian
  1.9199999999999999  1.3576450198781711 15.0000000000000018   F   F   F
  5.7599999999999989  1.3576450198781711 15.0000000000000018   F   F   F
  9.5999999999999996  1.3576450198781711 15.0000000000000018   F   F   F
  1.9199999999999999  4.0729350596345135 15.0000000000000018   F   F   F
  5.7599999999999989  4.0729350596345135 15.0000000000000018   F   F   F
  9.5999999999999996  4.0729350596345135 15.0000000000000018   F   F   F
  0.0000000000000000  0.0000000000000000 16.3576450198781735   F   F   F
  3.8399999999999999  0.0000000000000000 16.3576450198781735   F   F   F
  7.6799999999999997  0.0000000000000000 16.3576450198781735   F   F   F
  0.0000000000000000  2.7152900397563422 16.3576450198781735   F   F   F
  3.8399999999999999  2.7152900397563422 16.3576450198781735   F   F   F
  7.6799999999999997  2.7152900397563422 16.3576450198781735   F   F   F
  1.9165019982710778  1.3493298221537462 17.7368700752511970   T   T   T
  5.7512057311103231  1.3362574036370980 17.7656358669601886   T   T   T
  9.6110631706988343  1.3805890253397923 17.7927189114744415   T   T   T
  1.9196259404556428  4.0752798285312730 17.6802003281296862   T   T   T
  5.7543850295349781  4.0626172091143014 17.7735490442092683   T   T   T
  9.6070237299896668  4.0593007075474237 17.7825828403660253   T   T   T
 11.5108555715207714  0.0225821454549739 18.9723777518045438   T   T   T
  3.8251411132897815  5.4158229604626920 19.0257930179243395   T   T   T
  7.6762126493677645  5.4262141162578015 19.0056120144712040   T   T   T
  0.0351108889565966  2.7422061230560817 19.0569770747716021   T   T   T
  3.8181307997727814  2.6796372655711149 19.0325782417771983   T   T   T
  7.6694232990401776  2.7110489164161846 19.0025072987201931   T   T   T
  2.7056477865874369  3.2896126970142450 20.9158427597645371   T   T   T
  2.8685917285690565  4.8761925647505739 20.7999445474460316   T   T   T
  1.1643245371543631  2.9766919284881292 20.7950170401098013   T   T   T
