NH3_Cu100
 1.0000000000000000
    10.2106219203337467    0.0000000000000000    0.0000000000000000
     0.0000000000000000   10.2106219203337467    0.0000000000000000
     0.0000000000000000    0.0000000000000000   35.4149999999999991
 Cu  N   H  
  64   1   3
Selective dynamics
Cartesian
  1.2763277400417183  1.2763277400417183 15.0000000000000000   F   F   F
  3.8289832201251550  1.2763277400417183 15.0000000000000000   F   F   F
  6.3816387002085921  1.2763277400417183 15.0000000000000000   F   F   F
  8.9342941802920279  1.2763277400417183 15.0000000000000000   F   F   F
  1.2763277400417183  3.8289832201251550 15.0000000000000000   F   F   F
  3.8289832201251550  3.8289832201251550 15.0000000000000000   F   F   F
  6.3816387002085921  3.8289832201251550 15.0000000000000000   F   F   F
  8.9342941802920279  3.8289832201251550 15.0000000000000000   F   F   F
  1.2763277400417183  6.3816387002085921 15.0000000000000000   F   F   F
  3.8289832201251550  6.3816387002085921 15.0000000000000000   F   F   F
  6.3816387002085921  6.3816387002085921 15.0000000000000000   F   F   F
  8.9342941802920279  6.3816387002085921 15.0000000000000000   F   F   F
  1.2763277400417183  8.9342941802920279 15.0000000000000000   F   F   F
  3.8289832201251550  8.9342941802920279 15.0000000000000000   F   F   F
  6.3816387002085921  8.9342941802920279 15.0000000000000000   F   F   F
  8.9342941802920279  8.9342941802920279 15.0000000000000000   F   F   F
  0.0000000000000000  0.0000000000000000 16.8049999999999997   F   F   F
  2.5526554800834367  0.0000000000000000 16.8049999999999997   F   F   F
  5.1053109601668734  0.0000000000000000 16.8049999999999997   F   F   F
  7.6579664402503100  0.0000000000000000 16.8049999999999997   F   F   F
  0.0000000000000000  2.5526554800834367 16.8049999999999997   F   F   F
  2.5526554800834367  2.5526554800834367 16.8049999999999997   F   F   F
  5.1053109601668734  2.5526554800834367 16.8049999999999997   F   F   F
  7.6579664402503100  2.5526554800834367 16.8049999999999997   F   F   F
  0.0000000000000000  5.1053109601668734 16.8049999999999997   F   F   F
  2.5526554800834367  5.1053109601668734 16.8049999999999997   F   F   F
  5.1053109601668734  5.1053109601668734 16.8049999999999997   F   F   F
  7.6579664402503100  5.1053109601668734 16.8049999999999997   F   F   F
  0.0000000000000000  7.6579664402503100 16.8049999999999997   F   F   F
  2.5526554800834367  7.6579664402503100 16.8049999999999997   F   F   F
  5.1053109601668734  7.6579664402503100 16.8049999999999997   F   F   F
  7.6579664402503100  7.6579664402503100 16.8049999999999997   F   F   F
  1.2728677401485076  1.2724050041810415 18.6394695712258631   T   T   T
  3.8222866123387353  1.2775163592235221 18.6253213180479271   T   T   T
  6.3886651989126459  1.2777841831482231 18.6255118103730304   T   T   T
  8.9375979397692795  1.2731177686769606 18.6399137367310246   T   T   T
  1.2736766599654441  3.8209714685050291 18.6243502625597941   T   T   T
  3.8415247322117674  3.8437315517345074 18.6610343283967062   T   T   T
  6.3648260623632487  3.8434941980312258 18.6617751390241118   T   T   T
  8.9325813390263900  3.8213752455741119 18.6248882344202720   T   T   T
  1.2730868324470928  6.3885602314875891 18.6241367139298717   T   T   T
  3.8405009521554989  6.3678614850141591 18.6575776284571759   T   T   T
  6.3663087235158997  6.3683908001853267 18.6581964832550504   T   T   T
  8.9333014155342738  6.3884891752330457 18.6247621693237342   T   T   T
  1.2716080537051309  8.9390752358443777 18.6381916896779636   T   T   T
  3.8214109403340126  8.9372940803057777 18.6233410433125322   T   T   T
  6.3900337496764168  8.9373892062119857 18.6234598047605857   T   T   T
  8.9391004188774463  8.9386224192943029 18.6387386524222087   T   T   T
 10.2105561663943458  0.0002982574651723 20.4282554912726226   T   T   T
  2.5571845503403985 10.2104381363014181 20.4191656582936858   T   T   T
  5.1052027094315697  0.0022601429525760 20.4069726671084801   T   T   T
  7.6530637377769013  0.0003028186897085 20.4186443106644546   T   T   T
  0.0004940107566413  2.5576626537868310 20.4184021783677032   T   T   T
  2.5502705981617968  2.5502445178785420 20.4111759383183973   T   T   T
  5.1048568387829798  2.5020278267234870 20.3974378636966591   T   T   T
  7.6597273066280867  2.5511464551843233 20.4132830022973124   T   T   T
 10.2050931711590263  5.1055767192083970 20.4070323499631385   T   T   T
  2.4932511589644348  5.1045549727943706 20.3912988690912194   T   T   T
  5.1024954999666257  5.1052232090331664 20.5575802192166570   T   T   T
  7.7062114678086084  5.1050415332531589 20.3921689895018687   T   T   T
  0.0008361272818421  7.6534576389609166 20.4194265193757722   T   T   T
  2.5492461070985182  7.6616723009806744 20.4051611191274773   T   T   T
  5.1056551132030439  7.7154322139911340 20.3850224069795409   T   T   T
  7.6615057971963045  7.6614759531735457 20.4074763808412563   T   T   T
  5.0683327115630972  5.2110897515606309 22.6267050871978945   T   T   T
  5.9796455947922098  5.4944904347984416 23.0001674324022147   T   T   T
  4.3727133474751723  5.8986684607271718 22.9323658046600158   T   T   T
  4.8212173502650151  4.3040842189364357 23.0339656212853363   T   T   T
