CH3OCH3_Pt110
 1.0000000000000000
    11.7599999999999998    0.0000000000000000    0.0000000000000000
     0.0000000000000000    5.5437171645025325    0.0000000000000000
     0.0000000000000000    0.0000000000000000   34.1577878733768969
 Pt  C   O   H  
  24   2   1   6
Selective dynamics
Cartesian
  1.9600000000000000  1.3859292911256331 14.9999999999999982   F   F   F
  5.8799999999999999  1.3859292911256331 14.9999999999999982   F   F   F
  9.8000000000000007  1.3859292911256331 14.9999999999999982   F   F   F
  1.9600000000000000  4.1577878733768996 14.9999999999999982   F   F   F
  5.8799999999999999  4.1577878733768996 14.9999999999999982   F   F   F
  9.8000000000000007  4.1577878733768996 14.9999999999999982   F   F   F
  0.0000000000000000  0.0000000000000000 16.3859292911256311   F   F   F
  3.9199999999999999  0.0000000000000000 16.3859292911256311   F   F   F
  7.8399999999999999  0.0000000000000000 16.3859292911256311   F   F   F
  0.0000000000000000  2.7718585822512662 16.3859292911256311   F   F   F
  3.9199999999999999  2.7718585822512662 16.3859292911256311   F   F   F
  7.8399999999999999  2.7718585822512662 16.3859292911256311   F   F   F
  1.9340676967077692  1.3481611374720406 17.8853197506280139   T   T   T
  5.9043978509871442  1.3478244191981708 17.8869164991874783   T   T   T
  9.7993252084599067  1.3505781476455885 17.8984518088611786   T   T   T
  1.9386243618791077  4.1302279046226618 17.8879053807308992   T   T   T
  5.9013806812243850  4.1304365586312182 17.8858069869447291   T   T   T
  9.7986517856092288  4.1269618982502578 17.8974135135528094   T   T   T
 11.7489979520120507  5.5000643701600529 19.2026822729697386   T   T   T
  3.9191803601402899  5.5066243335591132 19.1278197993386101   T   T   T
  7.8501985552190980  5.5015668111633946 19.2027247182086711   T   T   T
 11.7480879629780262  2.7289074870112411 19.1905780004250524   T   T   T
  3.9184995357698256  2.7316826172141679 19.1377882642410704   T   T   T
  7.8483812901928580  2.7293949936225248 19.1922546995640353   T   T   T
  2.7292171233951166  3.1303674076454251 21.9923173248477255   T   T   T
  5.1400402648982570  3.2453690646061228 21.9731481599994183   T   T   T
  3.9562391306784179  2.6483161990137289 21.3965313877178396   T   T   T
  2.6899675335203930  2.8117684279670598 23.0442248058033883   T   T   T
  2.6683351985170716  4.2285359530476612 21.9259073883558493   T   T   T
  1.8987570023495544  2.6815804192194821 21.4319656405260481   T   T   T
  5.1009050087344692  4.3448384803072679 21.9005853767728347   T   T   T
  6.0029573238166787  2.8693253479264840 21.4065495191313815   T   T   T
  5.2201895255343107  2.9397711708957277 23.0264508211621681   T   T   T
