N2_Au111
 1.0000000000000000
     8.6549870017233435    0.0000000000000000    0.0000000000000000
     4.3274935008616717    7.4954386129165247    0.0000000000000000
     0.0000000000000000    0.0000000000000000   37.0667672948810178
 Au  N  
  36   2
Selective dynamics
Cartesian
  0.0000000000000000  0.0000000000000000 15.0000000000000000   F   F   F
  2.8849956672411143  0.0000000000000000 15.0000000000000000   F   F   F
  5.7699913344822287  0.0000000000000000 15.0000000000000000   F   F   F
  1.4424978336205572  2.4984795376388416 15.0000000000000000   F   F   F
  4.3274935008616717  2.4984795376388416 15.0000000000000000   F   F   F
  7.2124891681027856  2.4984795376388416 15.0000000000000000   F   F   F
  2.8849956672411143  4.9969590752776831 15.0000000000000000   F   F   F
  5.7699913344822287  4.9969590752776831 15.0000000000000000   F   F   F
  8.6549870017233435  4.9969590752776831 15.0000000000000000   F   F   F
  1.4424978336205572  0.8328265125462805 17.3555890982936738   F   F   F
  4.3274935008616717  0.8328265125462805 17.3555890982936738   F   F   F
  7.2124891681027865  0.8328265125462805 17.3555890982936738   F   F   F
  2.8849956672411143  3.3313060501851219 17.3555890982936738   F   F   F
  5.7699913344822287  3.3313060501851219 17.3555890982936738   F   F   F
  8.6549870017233435  3.3313060501851219 17.3555890982936738   F   F   F
  4.3274935008616717  5.8297855878239639 17.3555890982936738   F   F   F
  7.2124891681027856  5.8297855878239639 17.3555890982936738   F   F   F
 10.0974848353439004  5.8297855878239639 17.3555890982936738   F   F   F
  8.6549860987531186  1.6656598589322280 19.8046352350554464   T   T   T
  2.8849408661031548  1.6656128959495451 19.8047281123879308   T   T   T
  5.7700460558387503  1.6656206652926060 19.8047103268821338   T   T   T
 10.0975125815077380  4.1641174687572828 19.8046867681098817   T   T   T
  4.3275004685953737  4.1641992483604984 19.8047277795138896   T   T   T
  7.2124536276449493  4.1641197682927391 19.8046520857239088   T   T   T
 11.5399755920701050  6.6626086903340562 19.8046347243885208   T   T   T
  5.7699970376223320  6.6626086465409795 19.8046472273673047   T   T   T
  8.6549805182433115  6.6626498390165807 19.8046604491951470   T   T   T
  4.3275436127026641  7.4954150660465695 22.3184682858096366   T   T   T
  7.2125683929852098  7.4953605667373147 22.3183553579529814   T   T   T
 10.0973689905621189  7.4952940915853699 22.3185369219244159   T   T   T
 10.0974485287288775  2.4985842924721804 22.3183702193200730   T   T   T
  4.3274455987860891  2.4985003034169848 22.3184812884117818   T   T   T
  7.2125603871925579  2.4986480815436138 22.3185472007018966   T   T   T
 11.5398586864829245  4.9969391260201368 22.3183969540561833   T   T   T
  5.7701077725403049  4.9969363420238233 22.3183947807368028   T   T   T
  8.6549949202400462  4.9969618173834993 22.3181469271234967   T   T   T
  9.0903335632524236  4.7241002626276112 26.5021994709106146   T   T   T
  8.1672462379714847  5.3444493459504816 26.4974776244448691   T   T   T
