HCOOH_Ag111
 1.0000000000000000
     8.6762002051589384    0.0000000000000000    0.0000000000000000
     4.3381001025794710    7.5138097859873962    0.0000000000000000
     0.0000000000000000    0.0000000000000000   37.0840878029567094
 Ag  O   C   H  
  36   2   1   2
Selective dynamics
Cartesian
  0.0000000000000000  0.0000000000000000 14.9999999999999982   F   F   F
  2.8920667350529787  0.0000000000000000 14.9999999999999982   F   F   F
  5.7841334701059575  0.0000000000000000 14.9999999999999982   F   F   F
  1.4460333675264903  2.5046032619957987 14.9999999999999982   F   F   F
  4.3381001025794692  2.5046032619957987 14.9999999999999982   F   F   F
  7.2301668376324475  2.5046032619957987 14.9999999999999982   F   F   F
  2.8920667350529805  5.0092065239915975 14.9999999999999982   F   F   F
  5.7841334701059592  5.0092065239915975 14.9999999999999982   F   F   F
  8.6762002051589384  5.0092065239915975 14.9999999999999982   F   F   F
  1.4460333675264898  0.8348677539985995 17.3613626009855686   F   F   F
  4.3381001025794683  0.8348677539985995 17.3613626009855686   F   F   F
  7.2301668376324484  0.8348677539985995 17.3613626009855686   F   F   F
  2.8920667350529801  3.3394710159943979 17.3613626009855686   F   F   F
  5.7841334701059592  3.3394710159943979 17.3613626009855686   F   F   F
  8.6762002051589384  3.3394710159943979 17.3613626009855686   F   F   F
  4.3381001025794710  5.8440742779901944 17.3613626009855686   F   F   F
  7.2301668376324493  5.8440742779901944 17.3613626009855686   F   F   F
 10.1222335726854276  5.8440742779901944 17.3613626009855686   F   F   F
  8.6763565607821160  1.6690627791424830 19.7654059131779718   T   T   T
  2.8922893990986229  1.6705089668799544 19.7676341345979978   T   T   T
  5.7832833308966043  1.6698812762082715 19.7657573667604396   T   T   T
 10.1204896373254130  4.1759783214211534 19.7734732081683369   T   T   T
  4.3382648724938679  4.1737165864082950 19.7659580002406656   T   T   T
  7.2325839071421401  4.1765249961520894 19.7714665943530647   T   T   T
 11.5675586880336336  6.6789356834609537 19.7692280528797184   T   T   T
  5.7841843515924332  6.6783632304077996 19.7685883094260824   T   T   T
  8.6763724770350734  6.6769286982640565 19.7756974376992964   T   T   T
 13.0131983945257943  7.5134302234413264 22.1885275152617893   T   T   T
  2.8883918324456399  0.0035139786386690 22.1816528428587745   T   T   T
  5.7877093270018980  0.0054157058545298 22.1838077546998100   T   T   T
 10.1203117403692993  2.5034661027424367 22.1869588599699021   T   T   T
  4.3387790109334698  2.5036464385960229 22.1886163444507645   T   T   T
  7.2304871030144167  2.5057075083932014 22.1859907666523597   T   T   T
  2.8954493073013228  5.0076170673680638 22.1832018016992407   T   T   T
  5.7833498950478281  5.0061406547069796 22.1863506037258844   T   T   T
  8.6741143480779854  5.0061640462882044 22.1965898091144354   T   T   T
  7.6975823360154720  3.5568943254653678 25.6189038754344836   T   T   T
  8.8140677545474464  5.5011649182604581 25.1885972798593158   T   T   T
  8.3605042550559059  4.6703883507657729 25.9562391152437861   T   T   T
  7.6540848628560543  3.5472042071434964 24.6262574619696686   T   T   T
  8.4522145844016698  4.7494755362742245 27.0478293431330314   T   T   T
