SO2_Pd110
 1.0000000000000000
    11.6699999999999999    0.0000000000000000    0.0000000000000000
     0.0000000000000000    5.5012907576313399    0.0000000000000000
     0.0000000000000000    0.0000000000000000   34.1259680682235071
 Pd  S   O  
  24   1   2
Selective dynamics
Cartesian
  1.9449999999999998  1.3753226894078348 14.9999999999999929   F   F   F
  5.8349999999999991  1.3753226894078348 14.9999999999999929   F   F   F
  9.7249999999999996  1.3753226894078348 14.9999999999999929   F   F   F
  1.9449999999999998  4.1259680682235054 14.9999999999999929   F   F   F
  5.8349999999999991  4.1259680682235054 14.9999999999999929   F   F   F
  9.7249999999999996  4.1259680682235054 14.9999999999999929   F   F   F
  0.0000000000000000  0.0000000000000000 16.3753226894078345   F   F   F
  3.8899999999999997  0.0000000000000000 16.3753226894078345   F   F   F
  7.7799999999999994  0.0000000000000000 16.3753226894078345   F   F   F
  0.0000000000000000  2.7506453788156695 16.3753226894078345   F   F   F
  3.8899999999999997  2.7506453788156695 16.3753226894078345   F   F   F
  7.7799999999999994  2.7506453788156695 16.3753226894078345   F   F   F
  1.9678780549592179  1.3495307469314950 17.8220413449086905   T   T   T
  5.8326892926904312  1.3599883033111280 17.7978171965579293   T   T   T
  9.7188098898275932  1.3745684808765259 17.8229878277401106   T   T   T
  1.9546261648787886  4.1019912115869470 17.8129242052755181   T   T   T
  5.8284407226938848  4.1126252728530748 17.7696844318533174   T   T   T
  9.7208770271096281  4.1050850378318975 17.8214885347113245   T   T   T
  0.0059241964148017  5.4736378818471154 19.1650041093783408   T   T   T
  3.8658678714125445  5.4869688618792916 19.2071412770431067   T   T   T
  7.7957651234671186  0.0006112463453268 19.1450591297579322   T   T   T
  0.0125097661281153  2.7203830451291178 19.1698750137052016   T   T   T
  3.8953136760347533  2.7146482377220660 19.2335004116779835   T   T   T
  7.7818872717689489  2.7511442920387292 19.2188221994600497   T   T   T
  5.0754892754636263  3.3424286185979541 21.0297668083541325   T   T   T
  4.9665179598972777  4.8545595028905968 21.0031790209684850   T   T   T
  6.5100260645949897  2.8756511575944406 20.9652118401453151   T   T   T
