N2_Pd111
 1.0000000000000000
     8.2519361364470107    0.0000000000000000    0.0000000000000000
     4.1259680682235054    7.1463863245699208    0.0000000000000000
     0.0000000000000000    0.0000000000000000   36.7376776414429358
 Pd  N  
  36   2
Selective dynamics
Cartesian
  0.0000000000000000  0.0000000000000000 15.0000000000000000   F   F   F
  2.7506453788156700  0.0000000000000000 15.0000000000000000   F   F   F
  5.5012907576313399  0.0000000000000000 15.0000000000000000   F   F   F
  1.3753226894078350  2.3821287748566400 15.0000000000000000   F   F   F
  4.1259680682235054  2.3821287748566400 15.0000000000000000   F   F   F
  6.8766134470391753  2.3821287748566400 15.0000000000000000   F   F   F
  2.7506453788156700  4.7642575497132800 15.0000000000000000   F   F   F
  5.5012907576313399  4.7642575497132800 15.0000000000000000   F   F   F
  8.2519361364470107  4.7642575497132800 15.0000000000000000   F   F   F
  1.3753226894078350  0.7940429249522137 17.2458925471476441   F   F   F
  4.1259680682235045  0.7940429249522137 17.2458925471476441   F   F   F
  6.8766134470391744  0.7940429249522137 17.2458925471476441   F   F   F
  2.7506453788156700  3.1761716998088549 17.2458925471476441   F   F   F
  5.5012907576313399  3.1761716998088549 17.2458925471476441   F   F   F
  8.2519361364470090  3.1761716998088549 17.2458925471476441   F   F   F
  4.1259680682235054  5.5583004746654945 17.2458925471476441   F   F   F
  6.8766134470391753  5.5583004746654945 17.2458925471476441   F   F   F
  9.6272588258548453  5.5583004746654945 17.2458925471476441   F   F   F
  8.2544168576315737  1.5861623290894409 19.5187644561681992   T   T   T
  2.7481526987501406  1.5862059920443425 19.5187575928304540   T   T   T
  5.5012499344483450  1.5864138977981221 19.5187312989217077   T   T   T
  9.6272911004717994  3.9672611532234661 19.5188272307898423   T   T   T
  4.1366471113004240  3.9756803036221893 19.5444430380059906   T   T   T
  6.8659860120679141  3.9755971184215539 19.5439777274423854   T   T   T
 11.0021527398759318  6.3520735899099066 19.5214583734403284   T   T   T
  5.5012428038073109  6.3354645154211298 19.5501312043338160   T   T   T
  8.2523214757615548  6.3520919439135026 19.5213590508305721   T   T   T
  8.2436436906189776  0.0104489847117880 21.8237084494830960   T   T   T
  2.7587308469588638  0.0104804654164610 21.8235625689147916   T   T   T
  9.6271802991975122  7.1459853978036616 21.8335807206856565   T   T   T
  1.3752364152152687  2.3805616412736450 21.8337635039458995   T   T   T
  4.1187312107069785  2.3672592886864865 21.8149908366596961   T   T   T
  6.8836248059320493  2.3672925231588748 21.8147507942129195   T   T   T
 10.9878828934009469  4.7651927059207244 21.8186712002281169   T   T   T
  5.5012652564583462  4.7601628645789802 21.9319198585847559   T   T   T
  8.2664109171675886  4.7651781080750331 21.8182944745750511   T   T   T
  5.5053779992792018  4.6931568776108659 23.9002901779979346   T   T   T
  5.5066813689757508  4.6319732140894923 25.0207572090920181   T   T   T
