CH3OCH3 molecule | 9 atoms | 20x20x20 A box
   1.00000000000000
   20.0000000000000000    0.0000000000000000    0.0000000000000000
    0.0000000000000000   20.0000000000000000    0.0000000000000000
    0.0000000000000000    0.0000000000000000   20.0000000000000000
  C  O  H
  2  1  6
Cartesian
    8.8542215418965675    9.9140754155448274    9.8353761006025113
   11.1879624215668088   10.0024424914646186   10.0975657777711252
    9.9956980888023352   10.7560677871711547    9.9236126444301114
    7.9705851000842127   10.5440881662297787    9.7028674645990165
    8.9381541481169062    9.2439322128288453    8.9743371154555192
    8.7347186315198364    9.3331238616568033   10.7550163905355252
   11.1437614105524592    9.4243371780254019   11.0256628845444808
   12.0294148999157873   10.6977748995208604   10.1588718188625453
   11.3471953007842412    9.3351545911913298    9.2449838752723767
