CH3_Ir100
 1.0000000000000000
     8.1458701192690270    0.0000000000000000    0.0000000000000000
     0.0000000000000000    8.1458701192690270    0.0000000000000000
     0.0000000000000000    0.0000000000000000   35.7599999999999980
 Ir  C   H  
  36   1   3
Selective dynamics
Cartesian
  1.3576450198781711  1.3576450198781711 15.0000000000000018   F   F   F
  4.0729350596345135  1.3576450198781711 15.0000000000000018   F   F   F
  6.7882250993908553  1.3576450198781711 15.0000000000000018   F   F   F
  1.3576450198781711  4.0729350596345135 15.0000000000000018   F   F   F
  4.0729350596345135  4.0729350596345135 15.0000000000000018   F   F   F
  6.7882250993908553  4.0729350596345135 15.0000000000000018   F   F   F
  1.3576450198781711  6.7882250993908553 15.0000000000000018   F   F   F
  4.0729350596345135  6.7882250993908553 15.0000000000000018   F   F   F
  6.7882250993908553  6.7882250993908553 15.0000000000000018   F   F   F
  0.0000000000000000  0.0000000000000000 16.9200000000000017   F   F   F
  2.7152900397563422  0.0000000000000000 16.9200000000000017   F   F   F
  5.4305800795126844  0.0000000000000000 16.9200000000000017   F   F   F
  0.0000000000000000  2.7152900397563422 16.9200000000000017   F   F   F
  2.7152900397563422  2.7152900397563422 16.9200000000000017   F   F   F
  5.4305800795126844  2.7152900397563422 16.9200000000000017   F   F   F
  0.0000000000000000  5.4305800795126844 16.9200000000000017   F   F   F
  2.7152900397563422  5.4305800795126844 16.9200000000000017   F   F   F
  5.4305800795126844  5.4305800795126844 16.9200000000000017   F   F   F
  1.3574073515480396  1.3574785275013097 18.8774217680338161   T   T   T
  4.0831503364499984  1.3694496554385416 18.9033780643984812   T   T   T
  6.7769165889664720  1.3690138269681751 18.9035663066806592   T   T   T
  1.3570071807620596  4.0716762263843220 18.8783400075679673   T   T   T
  4.0821851044034911  4.0633515623275720 18.9028473358014466   T   T   T
  6.7771909514313249  4.0627423276670118 18.9029051675674467   T   T   T
  1.3580265754783987  6.7859734782519734 18.8780022261518390   T   T   T
  4.0736868015014878  6.7882761449842732 18.8775463103611685   T   T   T
  6.7874526155994808  6.7883833177250663 18.8775171102234616   T   T   T
  8.1447811293695001  0.0016521891729356 20.7372152102208176   T   T   T
  2.7146527657804387  0.0032197928864355 20.7374296057486731   T   T   T
  5.4295149493523169  8.1248753994173324 20.7335703020867044   T   T   T
  0.0169924545422014  2.7155381073980616 20.7350273645573218   T   T   T
  2.7000154482342449  2.7154971798795535 20.7361661642557671   T   T   T
  5.4341319859739343  2.7032194880056104 20.8059433299211882   T   T   T
  8.1404131914409330  5.4294603306587312 20.7396640617451382   T   T   T
  2.7191146411416538  5.4278116970194565 20.7406593537624033   T   T   T
  5.4301665413294833  5.4408916952375046 20.7378849137300776   T   T   T
  5.5053754765372620  2.5013639885204237 22.8846068614336673   T   T   T
  5.7101939798213879  3.4962449037919927 23.3069930973318087   T   T   T
  4.5344912067121728  2.1320054306386704 23.2451229922352987   T   T   T
  6.3016539142977939  1.8005019839030567 23.1738293725828441   T   T   T
