C2H6_Ag111
 1.0000000000000000
    11.5682669402119185    0.0000000000000000    0.0000000000000000
     0.0000000000000000   10.0184130479831968    0.0000000000000000
     0.0000000000000000    0.0000000000000000   37.0840878029567094
 Ag  C   H  
  64   2   6
Selective dynamics
Cartesian
  0.0000000000000000  0.0000000000000000 14.9999999999999982   F   F   F
  2.8920667350529796  0.0000000000000000 14.9999999999999982   F   F   F
  5.7841334701059592  0.0000000000000000 14.9999999999999982   F   F   F
  8.6762002051589384  0.0000000000000000 14.9999999999999982   F   F   F
  1.4460333675264898  2.5046032619957992 14.9999999999999982   F   F   F
  4.3381001025794692  2.5046032619957992 14.9999999999999982   F   F   F
  7.2301668376324493  2.5046032619957992 14.9999999999999982   F   F   F
 10.1222335726854293  2.5046032619957992 14.9999999999999982   F   F   F
  0.0000000000000000  5.0092065239915984 14.9999999999999982   F   F   F
  2.8920667350529796  5.0092065239915984 14.9999999999999982   F   F   F
  5.7841334701059592  5.0092065239915984 14.9999999999999982   F   F   F
  8.6762002051589384  5.0092065239915984 14.9999999999999982   F   F   F
  1.4460333675264898  7.5138097859873980 14.9999999999999982   F   F   F
  4.3381001025794692  7.5138097859873980 14.9999999999999982   F   F   F
  7.2301668376324493  7.5138097859873980 14.9999999999999982   F   F   F
 10.1222335726854293  7.5138097859873980 14.9999999999999982   F   F   F
  1.4460333675264898  0.8348677539985997 17.3613626009855686   F   F   F
  4.3381001025794692  0.8348677539985997 17.3613626009855686   F   F   F
  7.2301668376324493  0.8348677539985997 17.3613626009855686   F   F   F
 10.1222335726854293  0.8348677539985997 17.3613626009855686   F   F   F
  0.0000000000000000  3.3394710159943988 17.3613626009855686   F   F   F
  2.8920667350529796  3.3394710159943988 17.3613626009855686   F   F   F
  5.7841334701059592  3.3394710159943988 17.3613626009855686   F   F   F
  8.6762002051589384  3.3394710159943988 17.3613626009855686   F   F   F
  1.4460333675264898  5.8440742779901989 17.3613626009855686   F   F   F
  4.3381001025794692  5.8440742779901989 17.3613626009855686   F   F   F
  7.2301668376324493  5.8440742779901989 17.3613626009855686   F   F   F
 10.1222335726854293  5.8440742779901989 17.3613626009855686   F   F   F
  0.0000000000000000  8.3486775399859976 17.3613626009855686   F   F   F
  2.8920667350529796  8.3486775399859976 17.3613626009855686   F   F   F
  5.7841334701059592  8.3486775399859976 17.3613626009855686   F   F   F
  8.6762002051589384  8.3486775399859976 17.3613626009855686   F   F   F
  0.0001220644680670  1.6697089512772736 19.7664588426499428   T   T   T
  2.8922272032250267  1.6697254878631527 19.7672016409418951   T   T   T
  5.7840013970237383  1.6698037226421001 19.7673824718718656   T   T   T
  8.6761833988414327  1.6696042199254124 19.7664764171602982   T   T   T
  1.4460878476394741  4.1743151588516447 19.7665506802696171   T   T   T
  4.3380986543808389  4.1742134065641139 19.7671761999605202   T   T   T
  7.2300331644282299  4.1743580791569768 19.7667650733359110   T   T   T
 10.1222556377585011  4.1744258973666808 19.7663018984995880   T   T   T
 11.5682531103159096  6.6789292818292427 19.7663154549430402   T   T   T
  2.8921260043668560  6.6788808796022225 19.7664343836069243   T   T   T
  5.7840657550729935  6.6788374965176507 19.7664550197949964   T   T   T
  8.6762298312854806  6.6789351953039926 19.7663090060783411   T   T   T
  1.4460110999779170  9.1836501685367935 19.7664022095997041   T   T   T
  4.3380765945244377  9.1836846570109483 19.7666893554491772   T   T   T
  7.2302052408422304  9.1836445974718082 19.7664958290231887   T   T   T
 10.1222498188166732  9.1835692482545390 19.7663247894951724   T   T   T
  0.0001536787390260  0.0000580270371680 22.1893465257823799   T   T   T
  2.8921169160594751  0.0001553600209447 22.1883611308693958   T   T   T
  5.7840903102960413 10.0183843702156903 22.1888340951444611   T   T   T
  8.6760921600001435  0.0001024368248350 22.1893564672393495   T   T   T
  1.4464194226582294  2.5045493483884198 22.1893100236487761   T   T   T
  4.3380061936336149  2.5045474516013755 22.1871227552905985   T   T   T
  7.2298970492530641  2.5046023135673186 22.1883791896952367   T   T   T
 10.1220600570873547  2.5045957909154231 22.1893842023488972   T   T   T
  0.0000718861136787  5.0092360279810073 22.1893790347518447   T   T   T
  2.8921768580024381  5.0089310201893769 22.1888561241463691   T   T   T
  5.7840957022852457  5.0092354305896389 22.1890119109924804   T   T   T
  8.6760913003449343  5.0091118763941136 22.1894809052333741   T   T   T
  1.4459022457444102  7.5137493785819567 22.1895108934222840   T   T   T
  4.3381061646655654  7.5137150295850592 22.1893362382642572   T   T   T
  7.2302826260006645  7.5137790884376576 22.1892586086136774   T   T   T
 10.1222706116578642  7.5138090646475613 22.1892914222024977   T   T   T
  5.3997964090729500  2.4319836385869951 26.0354882781394750   T   T   T
  3.8764819746809054  2.3657692386681957 26.1409456985166599   T   T   T
  5.7362677019098856  2.4672578169121433 24.9854506422220339   T   T   T
  5.8054158549830843  3.3253270509585140 26.5339305121140825   T   T   T
  5.8799503670043922  1.5565344479135621 26.4981491708809784   T   T   T
  3.5486203139720609  2.3221309385409556 27.1908967158027224   T   T   T
  3.4725751882442526  1.4751532616254976 25.6356959302359471   T   T   T
  3.3991220109397879  3.2472767166361449 25.6863538279879400   T   T   T
