NH3_Au110
 1.0000000000000000
    16.3200000000000003    0.0000000000000000    0.0000000000000000
     0.0000000000000000   11.5399826689644573    0.0000000000000000
     0.0000000000000000    0.0000000000000000   34.3274935008616708
 Au  N   H  
  64   1   3
Selective dynamics
Cartesian
  2.0400000000000000  1.4424978336205572 14.9999999999999964   F   F   F
  6.1200000000000001  1.4424978336205572 14.9999999999999964   F   F   F
 10.1999999999999922  1.4424978336205572 14.9999999999999964   F   F   F
 14.2800000000000011  1.4424978336205572 14.9999999999999964   F   F   F
  2.0400000000000000  4.3274935008616717 14.9999999999999964   F   F   F
  6.1200000000000001  4.3274935008616717 14.9999999999999964   F   F   F
 10.1999999999999922  4.3274935008616717 14.9999999999999964   F   F   F
 14.2800000000000011  4.3274935008616717 14.9999999999999964   F   F   F
  2.0400000000000000  7.2124891681027856 14.9999999999999964   F   F   F
  6.1200000000000001  7.2124891681027856 14.9999999999999964   F   F   F
 10.1999999999999922  7.2124891681027856 14.9999999999999964   F   F   F
 14.2800000000000011  7.2124891681027856 14.9999999999999964   F   F   F
  2.0400000000000000 10.0974848353439004 14.9999999999999964   F   F   F
  6.1200000000000001 10.0974848353439004 14.9999999999999964   F   F   F
 10.1999999999999922 10.0974848353439004 14.9999999999999964   F   F   F
 14.2800000000000011 10.0974848353439004 14.9999999999999964   F   F   F
  0.0000000000000000  0.0000000000000000 16.4424978336205569   F   F   F
  4.0800000000000001  0.0000000000000000 16.4424978336205569   F   F   F
  8.1600000000000001  0.0000000000000000 16.4424978336205569   F   F   F
 12.2400000000000002  0.0000000000000000 16.4424978336205569   F   F   F
  0.0000000000000000  2.8849956672411143 16.4424978336205569   F   F   F
  4.0800000000000001  2.8849956672411143 16.4424978336205569   F   F   F
  8.1600000000000001  2.8849956672411143 16.4424978336205569   F   F   F
 12.2400000000000002  2.8849956672411143 16.4424978336205569   F   F   F
  0.0000000000000000  5.7699913344822287 16.4424978336205569   F   F   F
  4.0800000000000001  5.7699913344822287 16.4424978336205569   F   F   F
  8.1600000000000001  5.7699913344822287 16.4424978336205569   F   F   F
 12.2400000000000002  5.7699913344822287 16.4424978336205569   F   F   F
  0.0000000000000000  8.6549870017233435 16.4424978336205569   F   F   F
  4.0800000000000001  8.6549870017233435 16.4424978336205569   F   F   F
  8.1600000000000001  8.6549870017233435 16.4424978336205569   F   F   F
 12.2400000000000002  8.6549870017233435 16.4424978336205569   F   F   F
  2.0445085880127181  1.4458831689302998 18.0697498964565710   T   T   T
  6.1016192671866474  1.4414439890479287 18.0622521474522948   T   T   T
 10.2154437559102682  1.4403556158981237 18.0503180579803306   T   T   T
 14.2803344257156279  1.4437467374130186 18.0666348841456532   T   T   T
  2.0392473821170829  4.3266453833387226 18.0617655133394663   T   T   T
  6.1380218128237649  4.3343779782085976 18.0543506566052052   T   T   T
 10.1727431090985920  4.3355859069449414 18.0747819536203380   T   T   T
 14.2783031643796399  4.3292184063317185 18.0682802023496123   T   T   T
  2.0390014387760922  7.2133326318224409 18.0617759131232418   T   T   T
  6.1376378168098302  7.2084154369104985 18.0513850174907837   T   T   T
 10.1770964827133117  7.2085045515560084 18.0710446763398025   T   T   T
 14.2782425917707005  7.2108717944731566 18.0685058346133225   T   T   T
  2.0445715041709711 10.0941848717815787 18.0696634941206646   T   T   T
  6.1006006987080612 10.1009430263904161 18.0628265622942301   T   T   T
 10.2180663284482556 10.1041229558067425 18.0493252349837547   T   T   T
 14.2802403675086804 10.0962707665056932 18.0666873509347319   T   T   T
  0.0024919779830515 11.5399806605733417 19.4062319617998753   T   T   T
  4.0691237534219304  0.0006257105470094 19.4174622565033665   T   T   T
  8.1639630280995004  0.0029740933544958 19.4065423545262838   T   T   T
 12.2489704937802468  0.0008595116097679 19.4150473448407119   T   T   T
 16.3199528002523699  2.8851721347221004 19.4084562146204860   T   T   T
  4.0893976801461358  2.9031592791332193 19.4164783203846767   T   T   T
  8.1534865427157630  2.8349818386415331 19.3911254909111648   T   T   T
 12.2330513454297503  2.8919472552910990 19.4033138300140600   T   T   T
  0.0012940100793298  5.7699255485690735 19.4072569724221147   T   T   T
  4.0818667090698568  5.7707785118993540 19.4111839615531316   T   T   T
  8.2396290654920517  5.7705129523845899 19.4884499438209886   T   T   T
 12.2303423444347690  5.7702220752531570 19.4075283647598731   T   T   T
 16.3199760839195420  8.6548746386833812 19.4084308411524447   T   T   T
  4.0889175686308610  8.6372497529999936 19.4170275942694914   T   T   T
  8.1567406531139746  8.7117137779784013 19.3843200551097787   T   T   T
 12.2340789986626266  8.6489982738128290 19.4053541599613233   T   T   T
  7.1733253838919504  5.8400293419110687 21.4845906757848510   T   T   T
  6.1723122502647589  5.8349912896329093 21.2554127758602753   T   T   T
  7.3870227491714333  5.0255936958869434 22.0665640985720586   T   T   T
  7.3917029584131733  6.7012332479430468 21.9928114999376447   T   T   T
