CO_Pt110
 1.0000000000000000
    11.7599999999999998    0.0000000000000000    0.0000000000000000
     0.0000000000000000    5.5437171645025325    0.0000000000000000
     0.0000000000000000    0.0000000000000000   34.1577878733768969
 Pt  O   C  
  24   1   1
Selective dynamics
Cartesian
  1.9600000000000000  1.3859292911256331 14.9999999999999982   F   F   F
  5.8799999999999999  1.3859292911256331 14.9999999999999982   F   F   F
  9.8000000000000007  1.3859292911256331 14.9999999999999982   F   F   F
  1.9600000000000000  4.1577878733768996 14.9999999999999982   F   F   F
  5.8799999999999999  4.1577878733768996 14.9999999999999982   F   F   F
  9.8000000000000007  4.1577878733768996 14.9999999999999982   F   F   F
  0.0000000000000000  0.0000000000000000 16.3859292911256311   F   F   F
  3.9199999999999999  0.0000000000000000 16.3859292911256311   F   F   F
  7.8399999999999999  0.0000000000000000 16.3859292911256311   F   F   F
  0.0000000000000000  2.7718585822512662 16.3859292911256311   F   F   F
  3.9199999999999999  2.7718585822512662 16.3859292911256311   F   F   F
  7.8399999999999999  2.7718585822512662 16.3859292911256311   F   F   F
  1.9467536587329470  1.3890789370488719 17.8490675669384444   T   T   T
  5.8953660045057568  1.3885553827252792 17.8481391378334671   T   T   T
  9.8095936609758141  1.3863559547344724 17.9054121197925227   T   T   T
  1.9942799864501397  4.1608417923522705 17.9017315727055681   T   T   T
  5.8626291889233233  4.1605817933333009 17.9123857147683445   T   T   T
  9.8101629283362133  4.1582498084781570 17.9021435629731940   T   T   T
  0.0304788797386485  5.5433550168943810 19.1829268856967268   T   T   T
  3.9200902038533147  0.0208368589227488 19.2553739977185501   T   T   T
  7.8338700217682247  5.5431896549466453 19.1725695894162449   T   T   T
  0.0307924131078858  2.7754308826635872 19.1826165854998933   T   T   T
  3.9193080232633091  2.7624318702920596 19.2539746840359989   T   T   T
  7.8338419752756216  2.7745335442255450 19.1723488390453873   T   T   T
  4.6575819932965228  1.3960532590776991 21.8058423313476730   T   T   T
  4.3184656654725879  1.3943457375674613 20.6678246881373973   T   T   T
