CH3OCH3_Ir100
 1.0000000000000000
     8.1458701192690270    0.0000000000000000    0.0000000000000000
     0.0000000000000000    8.1458701192690270    0.0000000000000000
     0.0000000000000000    0.0000000000000000   35.7599999999999980
 Ir  C   O   H  
  36   2   1   6
Selective dynamics
Cartesian
  1.3576450198781711  1.3576450198781711 15.0000000000000018   F   F   F
  4.0729350596345135  1.3576450198781711 15.0000000000000018   F   F   F
  6.7882250993908553  1.3576450198781711 15.0000000000000018   F   F   F
  1.3576450198781711  4.0729350596345135 15.0000000000000018   F   F   F
  4.0729350596345135  4.0729350596345135 15.0000000000000018   F   F   F
  6.7882250993908553  4.0729350596345135 15.0000000000000018   F   F   F
  1.3576450198781711  6.7882250993908553 15.0000000000000018   F   F   F
  4.0729350596345135  6.7882250993908553 15.0000000000000018   F   F   F
  6.7882250993908553  6.7882250993908553 15.0000000000000018   F   F   F
  0.0000000000000000  0.0000000000000000 16.9200000000000017   F   F   F
  2.7152900397563422  0.0000000000000000 16.9200000000000017   F   F   F
  5.4305800795126844  0.0000000000000000 16.9200000000000017   F   F   F
  0.0000000000000000  2.7152900397563422 16.9200000000000017   F   F   F
  2.7152900397563422  2.7152900397563422 16.9200000000000017   F   F   F
  5.4305800795126844  2.7152900397563422 16.9200000000000017   F   F   F
  0.0000000000000000  5.4305800795126844 16.9200000000000017   F   F   F
  2.7152900397563422  5.4305800795126844 16.9200000000000017   F   F   F
  5.4305800795126844  5.4305800795126844 16.9200000000000017   F   F   F
  1.3753866512219817  1.3748510311889148 18.9074209058182099   T   T   T
  4.0591910989596958  1.3729586045869024 18.9060003989389820   T   T   T
  6.7901265597691536  1.3517700220530295 18.8723723191000232   T   T   T
  1.3713551112710112  4.0639276378822986 18.9042882914947015   T   T   T
  4.0558900157668170  4.0619124052263915 18.9071736262009900   T   T   T
  6.7889972506517724  4.0798947179274370 18.8718017362676207   T   T   T
  1.3545149131504830  6.7923743656984019 18.8767048882086286   T   T   T
  4.0760145044394864  6.7912401994173415 18.8763772262362650   T   T   T
  6.7890457424515569  6.7926689913329934 18.8739265308146003   T   T   T
  0.0023059915087703  0.0038037023442793 20.7456715954405233   T   T   T
  2.7146264721120157  8.1342342804518957 20.7417030281096899   T   T   T
  5.4290724390127414  0.0018590089277457 20.7438441737293040   T   T   T
  8.1212939678015807  2.7136355485517973 20.7306470881266129   T   T   T
  2.7153864351856458  2.7346746604845471 20.8554667761635848   T   T   T
  5.4583446539041240  2.7165929831266045 20.7210740097405832   T   T   T
  8.1419574388541189  5.4283835467142012 20.7370859217588936   T   T   T
  2.7126825459145341  5.4540004723584108 20.7325309696962243   T   T   T
  5.4314322610854884  5.4297779063121476 20.7437165035042881   T   T   T
  1.7221873883588907  3.5371339688499095 23.7669163578949707   T   T   T
  4.0376021903734909  2.9282082121650888 23.7649922171126207   T   T   T
  2.7500533545989807  2.7451238562712543 23.1271240741360451   T   T   T
  1.9209422500985869  4.6111117411109284 23.6208594008746076   T   T   T
  0.7698739812335418  3.2636028376029036 23.2936574834051520   T   T   T
  1.6961238050782959  3.2908150874170095 24.8374678032750076   T   T   T
  4.4004272395570707  3.9546884682311734 23.6014282486698690   T   T   T
  4.7324876822962061  2.2016644043736808 23.3239695444073831   T   T   T
  3.9274202134098415  2.7295569485079025 24.8411410960460728   T   T   T
