CH3OCH3_Cu110
 1.0000000000000000
    10.8300000000000001    0.0000000000000000    0.0000000000000000
     0.0000000000000000    5.1053109601668734    0.0000000000000000
     0.0000000000000000    0.0000000000000000   33.8289832201251528
 Cu  C   O   H  
  24   2   1   6
Selective dynamics
Cartesian
  1.8049999999999999  1.2763277400417183 14.9999999999999982   F   F   F
  5.4149999999999991  1.2763277400417183 14.9999999999999982   F   F   F
  9.0249999999999986  1.2763277400417183 14.9999999999999982   F   F   F
  1.8049999999999999  3.8289832201251550 14.9999999999999982   F   F   F
  5.4149999999999991  3.8289832201251550 14.9999999999999982   F   F   F
  9.0249999999999986  3.8289832201251550 14.9999999999999982   F   F   F
  0.0000000000000000  0.0000000000000000 16.2763277400417152   F   F   F
  3.6099999999999999  0.0000000000000000 16.2763277400417152   F   F   F
  7.2199999999999998  0.0000000000000000 16.2763277400417152   F   F   F
  0.0000000000000000  2.5526554800834367 16.2763277400417152   F   F   F
  3.6099999999999999  2.5526554800834367 16.2763277400417152   F   F   F
  7.2199999999999998  2.5526554800834367 16.2763277400417152   F   F   F
  1.8064898965322067  1.2810606109286962 17.6084855727509542   T   T   T
  5.4136249674775332  1.2814625067867853 17.6105941155034280   T   T   T
  9.0242030607867800  1.2756855357554917 17.6104178460926626   T   T   T
  1.8052281129217989  3.8240187500739449 17.6094653618014050   T   T   T
  5.4127962501329510  3.8234942215050691 17.6098469438129648   T   T   T
  9.0256547667146947  3.8296567945333000 17.6104602090181857   T   T   T
  0.0027338827985041  0.0001647936585877 18.7723514206379498   T   T   T
  3.6096273941447370  5.1038289477170542 18.7351140798520603   T   T   T
  7.2179049913956943  0.0002012681218158 18.7718736952182645   T   T   T
 10.8267949438924553  2.5528094948844506 18.7715497017986692   T   T   T
  3.6074309407895817  2.5528557117795985 18.8398673373839785   T   T   T
  7.2225069125047918  2.5525766889206523 18.7721524918725144   T   T   T
  2.5726165695395942  3.1581409847103004 22.0184827083871504   T   T   T
  4.5552628616543114  1.8388879573591386 21.9927215385424084   T   T   T
  3.5717194508635490  2.5259753806588852 21.2053071228827292   T   T   T
  3.0406742860280964  3.8796738222726761 22.7104969664779084   T   T   T
  1.8880345737670545  3.6877995248264201 21.3471212684974176   T   T   T
  2.0109129408963247  2.4162708190186128 22.6100228824343681   T   T   T
  5.0752707707098805  2.5408809324638670 22.6646078620275411   T   T   T
  5.2785489394625591  1.3911381268350038 21.3014273109494532   T   T   T
  4.0818552031250084  1.0469226794898485 22.5988045944158067   T   T   T
