C2H6 molecule | 8 atoms | 20x20x20 A box
   1.00000000000000
   20.0000000000000000    0.0000000000000000    0.0000000000000000
    0.0000000000000000   20.0000000000000000    0.0000000000000000
    0.0000000000000000    0.0000000000000000   20.0000000000000000
  C  H
  2  6
Cartesian
    9.2441845885069132   10.0070990936864028    9.9834962396896625
   10.7558155187897313    9.9928998542999601   10.0165038526217121
    8.8366486004720226    9.8996187921203678   10.9931410474817994
    8.8777365215045769   10.9480888935360738    9.5624566973661818
    8.8653787958604973    9.1844180954155377    9.3697191297926317
   11.1346211117707714   10.8155819937213771   10.6302789615084041
   11.1633513995279774   10.1003781135106578    9.0068589525182006
   11.1222630993808078    9.0519111064639262   10.4375453992615537
