CO2_Pt110
 1.0000000000000000
    11.7599999999999998    0.0000000000000000    0.0000000000000000
     0.0000000000000000    5.5437171645025325    0.0000000000000000
     0.0000000000000000    0.0000000000000000   34.1577878733768969
 Pt  C   O  
  24   1   2
Selective dynamics
Cartesian
  1.9600000000000000  1.3859292911256331 14.9999999999999982   F   F   F
  5.8799999999999999  1.3859292911256331 14.9999999999999982   F   F   F
  9.8000000000000007  1.3859292911256331 14.9999999999999982   F   F   F
  1.9600000000000000  4.1577878733768996 14.9999999999999982   F   F   F
  5.8799999999999999  4.1577878733768996 14.9999999999999982   F   F   F
  9.8000000000000007  4.1577878733768996 14.9999999999999982   F   F   F
  0.0000000000000000  0.0000000000000000 16.3859292911256311   F   F   F
  3.9199999999999999  0.0000000000000000 16.3859292911256311   F   F   F
  7.8399999999999999  0.0000000000000000 16.3859292911256311   F   F   F
  0.0000000000000000  2.7718585822512662 16.3859292911256311   F   F   F
  3.9199999999999999  2.7718585822512662 16.3859292911256311   F   F   F
  7.8399999999999999  2.7718585822512662 16.3859292911256311   F   F   F
  1.9602584578463906  1.3861105861541765 17.9055340451109295   T   T   T
  5.8802810243988581  1.3849575185873120 17.9056895336227484   T   T   T
  9.7989611746819438  1.3860639076345656 17.9051609559123222   T   T   T
  1.9608529500234506  4.1576605288301929 17.9052513297616933   T   T   T
  5.8783080357231103  4.1582671273493546 17.9064791120065223   T   T   T
  9.8001139345720620  4.1576919717776839 17.9049592009028515   T   T   T
  0.0005741274708585  0.0002272765326672 19.1881826203001040   T   T   T
  3.9205296480859095  5.5425659370297193 19.1859651928455897   T   T   T
  7.8395730126883283  5.5433093681762609 19.1862672336179436   T   T   T
  0.0003956962585865  2.7716924838890877 19.1880510026951612   T   T   T
  3.9186384487146793  2.7725628220359502 19.1834945947576614   T   T   T
  7.8422280564942826  2.7731367183529949 19.1859860152333539   T   T   T
  5.4089789421449668  2.3075655116455462 22.4163764345091145   T   T   T
  6.3637327323785398  2.9864404139767466 22.3124307649151525   T   T   T
  4.4627236294859021  1.6217882278988365 22.5535800978008538   T   T   T
