CO2_Ag110
 1.0000000000000000
    12.2699999999999996    0.0000000000000000    0.0000000000000000
     0.0000000000000000    5.7841334701059592    0.0000000000000000
     0.0000000000000000    0.0000000000000000   34.3381001025794674
 Ag  C   O  
  24   1   2
Selective dynamics
Cartesian
  2.0449999999999999  1.4460333675264898 15.0000000000000053   F   F   F
  6.1349999999999998  1.4460333675264898 15.0000000000000053   F   F   F
 10.2249999999999979  1.4460333675264898 15.0000000000000053   F   F   F
  2.0449999999999999  4.3381001025794692 15.0000000000000053   F   F   F
  6.1349999999999998  4.3381001025794692 15.0000000000000053   F   F   F
 10.2249999999999979  4.3381001025794692 15.0000000000000053   F   F   F
  0.0000000000000000  0.0000000000000000 16.4460333675264891   F   F   F
  4.0899999999999999  0.0000000000000000 16.4460333675264891   F   F   F
  8.1799999999999997  0.0000000000000000 16.4460333675264891   F   F   F
  0.0000000000000000  2.8920667350529796 16.4460333675264891   F   F   F
  4.0899999999999999  2.8920667350529796 16.4460333675264891   F   F   F
  8.1799999999999997  2.8920667350529796 16.4460333675264891   F   F   F
  2.0453087419537277  1.4465839971633354 17.9859487454883542   T   T   T
  6.1351047492239283  1.4459407032954450 17.9881976632129934   T   T   T
 10.2253192297904825  1.4454436686244618 17.9857891087671220   T   T   T
  2.0434675833861520  4.3375761263493020 17.9842845540272798   T   T   T
  6.1348668660250301  4.3395326833067500 17.9915568567446549   T   T   T
 10.2249283775738835  4.3392258027658315 17.9862628278392407   T   T   T
  0.0004138091650500  0.0000650343972906 19.3563783411691475   T   T   T
  4.0863791439014001  5.7820198676788950 19.3501437493645980   T   T   T
  8.1812323302428940  5.7836329952126180 19.3555813272126791   T   T   T
 12.2695589168482950  2.8920443566898180 19.3563938005672043   T   T   T
  4.0899973450345399  2.8931415913612843 19.3574459762381252   T   T   T
  8.1832762618534467  2.8916496102007612 19.3501700909932559   T   T   T
  6.1986588738750825  1.2022415485517932 22.4635264832787271   T   T   T
  7.0117415279255964  0.3532424573825829 22.4725885336788096   T   T   T
  5.3866203336893559  2.0519202797549672 22.4650562483137790   T   T   T
