CH3OH molecule | 6 atoms | 20x20x20 A box
   1.00000000000000
   20.0000000000000000    0.0000000000000000    0.0000000000000000
    0.0000000000000000   20.0000000000000000    0.0000000000000000
    0.0000000000000000    0.0000000000000000   20.0000000000000000
  C  O  H
  1  1  4
Cartesian
   10.0600994999999980   10.6484299999999994   10.0000000000000000
   10.0600994999999980    9.2254899999999989   10.0000000000000000
    9.0142354999999998   10.9538259999999994   10.0000000000000000
   10.9857645000000002    8.9355830000000012   10.0000000000000000
   10.5443754999999992   11.0644169999999988   10.8917719999999996
   10.5443754999999992   11.0644169999999988    9.1082280000000004
