NO_Au111
 1.0000000000000000
     8.6549870017233435    0.0000000000000000    0.0000000000000000
     4.3274935008616717    7.4954386129165247    0.0000000000000000
     0.0000000000000000    0.0000000000000000   37.0667672948810178
 Au  N   O  
  36   1   1
Selective dynamics
Cartesian
  0.0000000000000000  0.0000000000000000 15.0000000000000000   F   F   F
  2.8849956672411143  0.0000000000000000 15.0000000000000000   F   F   F
  5.7699913344822287  0.0000000000000000 15.0000000000000000   F   F   F
  1.4424978336205572  2.4984795376388416 15.0000000000000000   F   F   F
  4.3274935008616717  2.4984795376388416 15.0000000000000000   F   F   F
  7.2124891681027856  2.4984795376388416 15.0000000000000000   F   F   F
  2.8849956672411143  4.9969590752776831 15.0000000000000000   F   F   F
  5.7699913344822287  4.9969590752776831 15.0000000000000000   F   F   F
  8.6549870017233435  4.9969590752776831 15.0000000000000000   F   F   F
  1.4424978336205572  0.8328265125462805 17.3555890982936738   F   F   F
  4.3274935008616717  0.8328265125462805 17.3555890982936738   F   F   F
  7.2124891681027865  0.8328265125462805 17.3555890982936738   F   F   F
  2.8849956672411143  3.3313060501851219 17.3555890982936738   F   F   F
  5.7699913344822287  3.3313060501851219 17.3555890982936738   F   F   F
  8.6549870017233435  3.3313060501851219 17.3555890982936738   F   F   F
  4.3274935008616717  5.8297855878239639 17.3555890982936738   F   F   F
  7.2124891681027856  5.8297855878239639 17.3555890982936738   F   F   F
 10.0974848353439004  5.8297855878239639 17.3555890982936738   F   F   F
  8.6601854471234123  1.6675347918920489 19.7888712682415608   T   T   T
  2.8801678420347776  1.6673261806310786 19.7891084849360830   T   T   T
  5.7700306037619198  1.6649584210919652 19.8067018090378291   T   T   T
 10.0979781822729340  4.1600030732059485 19.7925250836387718   T   T   T
  4.3377167563179446  4.1711965814541951 19.8384418500878041   T   T   T
  7.2029050913928403  4.1711320524883977 19.8364908158073057   T   T   T
 11.5404041943294100  6.6611805826971624 19.8025442105200042   T   T   T
  5.7701484587587144  6.6526625094664453 19.8317817498312507   T   T   T
  8.6546432192991407  6.6618223449807159 19.8024309803419207   T   T   T
  8.6426108880466881  0.0221559849031871 22.2958993699732382   T   T   T
  2.8977642713231195  0.0220047985512689 22.2985614256519327   T   T   T
 10.0972612775983546  7.4894220875345425 22.3268966624985410   T   T   T
 10.0981734186566552  2.5027162786641641 22.3274451603402788   T   T   T
  4.3180648094034302  2.4833777298834510 22.2852094008096273   T   T   T
  7.2223905572010505  2.4820501265622972 22.2840508421258008   T   T   T
 11.5251684681048925  4.9986241839805148 22.3024117967575073   T   T   T
  5.7703418927943186  4.9982275507720617 22.3916642835605977   T   T   T
  8.6703167416326501  4.9991600492878208 22.2985189257527132   T   T   T
  5.7753432040444981  5.0464815246511661 24.6032781453126539   T   T   T
  5.8803328099872241  4.0220866107780466 25.1699011306770295   T   T   T
