C2H4_Pd100
 1.0000000000000000
     8.2519361364470107    0.0000000000000000    0.0000000000000000
     0.0000000000000000    8.2519361364470107    0.0000000000000000
     0.0000000000000000    0.0000000000000000   35.8350000000000009
 Pd  C   H  
  36   2   4
Selective dynamics
Cartesian
  1.3753226894078350  1.3753226894078350 15.0000000000000000   F   F   F
  4.1259680682235054  1.3753226894078350 15.0000000000000000   F   F   F
  6.8766134470391780  1.3753226894078350 15.0000000000000000   F   F   F
  1.3753226894078350  4.1259680682235054 15.0000000000000000   F   F   F
  4.1259680682235054  4.1259680682235054 15.0000000000000000   F   F   F
  6.8766134470391780  4.1259680682235054 15.0000000000000000   F   F   F
  1.3753226894078350  6.8766134470391780 15.0000000000000000   F   F   F
  4.1259680682235054  6.8766134470391780 15.0000000000000000   F   F   F
  6.8766134470391780  6.8766134470391780 15.0000000000000000   F   F   F
  0.0000000000000000  0.0000000000000000 16.9450000000000003   F   F   F
  2.7506453788156700  0.0000000000000000 16.9450000000000003   F   F   F
  5.5012907576313399  0.0000000000000000 16.9450000000000003   F   F   F
  0.0000000000000000  2.7506453788156700 16.9450000000000003   F   F   F
  2.7506453788156700  2.7506453788156700 16.9450000000000003   F   F   F
  5.5012907576313399  2.7506453788156700 16.9450000000000003   F   F   F
  0.0000000000000000  5.5012907576313399 16.9450000000000003   F   F   F
  2.7506453788156700  5.5012907576313399 16.9450000000000003   F   F   F
  5.5012907576313399  5.5012907576313399 16.9450000000000003   F   F   F
  1.3788716861932782  1.3767332251338462 18.9414435739767448   T   T   T
  4.1224265713831079  1.3767412978810043 18.9418433555081478   T   T   T
  6.8766895625861064  1.3747033295272850 18.9362999713215494   T   T   T
  1.3884617078459289  4.1313351318363445 18.9520755008886255   T   T   T
  4.1149632405457091  4.1316749980150371 18.9539434390531234   T   T   T
  6.8774866056460873  4.1222180517030944 18.9272389137891714   T   T   T
  1.3888543817365824  6.8720862407795371 18.9529969610548150   T   T   T
  4.1144705259293133  6.8718065118710312 18.9547481302235070   T   T   T
  6.8774519358398170  6.8802599392359642 18.9277403922971565   T   T   T
  0.0022590507345035  8.2478821363776085 20.9199626962284668   T   T   T
  2.7504786252742623  0.0096699304659835 20.9412569444555494   T   T   T
  5.5002264336009246  8.2481101796445557 20.9205659231203427   T   T   T
  0.0008490863963823  2.7547955723503121 20.9186863142928274   T   T   T
  2.7506127480546789  2.7455219744808521 20.9454642090317442   T   T   T
  5.5019624052284088  2.7544915380470951 20.9193047531298362   T   T   T
  8.2405726097088987  5.5012547925086972 20.9005970166250172   T   T   T
  2.7487320627274365  5.5040950170766143 21.0603280289572687   T   T   T
  5.5154544907834673  5.5013676947910612 20.9026284971305039   T   T   T
  2.7377663676688830  6.1616768493550813 23.0809039596186274   T   T   T
  2.7422003016676664  4.7381239122006118 23.0575804107181135   T   T   T
  1.8124686163174095  6.6940407571323117 23.3024084942285334   T   T   T
  3.6597339989185409  6.7007954750348686 23.2997143226390619   T   T   T
  1.8196860268942745  4.1947180548894032 23.2650111777633910   T   T   T
  3.6679606373341156  4.1993278405819625 23.2620967279999640   T   T   T
