NH3_Rh110
 1.0000000000000000
    11.4089999999999989    0.0000000000000000    0.0000000000000000
     0.0000000000000000    5.3782541777048811    0.0000000000000000
     0.0000000000000000    0.0000000000000000   34.0336906332786597
 Rh  N   H  
  24   1   3
Selective dynamics
Cartesian
  1.9014999999999997  1.3445635444262203 15.0000000000000000   F   F   F
  5.7044999999999995  1.3445635444262203 15.0000000000000000   F   F   F
  9.5074999999999985  1.3445635444262203 15.0000000000000000   F   F   F
  1.9014999999999997  4.0336906332786606 15.0000000000000000   F   F   F
  5.7044999999999995  4.0336906332786606 15.0000000000000000   F   F   F
  9.5074999999999985  4.0336906332786606 15.0000000000000000   F   F   F
  0.0000000000000000  0.0000000000000000 16.3445635444262187   F   F   F
  3.8029999999999995  0.0000000000000000 16.3445635444262187   F   F   F
  7.6059999999999990  0.0000000000000000 16.3445635444262187   F   F   F
  0.0000000000000000  2.6891270888524406 16.3445635444262187   F   F   F
  3.8029999999999995  2.6891270888524406 16.3445635444262187   F   F   F
  7.6059999999999990  2.6891270888524406 16.3445635444262187   F   F   F
  1.8929980962202815  1.3475345032209960 17.7217885963866983   T   T   T
  5.7053493817993779  1.3443136194059522 17.7301716821099511   T   T   T
  9.5086225203073873  1.3437981980529252 17.7444105052808041   T   T   T
  1.8975497677806945  4.0309529824566468 17.7257840006239320   T   T   T
  5.7033421495085879  4.0320745431096396 17.7464400654219894   T   T   T
  9.5114507302635403  4.0410426775637145 17.7352273618290219   T   T   T
  0.0041317822893538  0.0051453192303828 18.9960736798702108   T   T   T
  3.7837792295670845  5.3752152242315230 18.9612584259127033   T   T   T
  7.5995382189324703  0.0005643104527105 18.9985233486804752   T   T   T
  0.0067125548532436  2.6940530829818221 18.9900644974491257   T   T   T
  3.7780557720156924  2.6809804358614984 19.0038543469020382   T   T   T
  7.6177793964212066  2.6924287587646623 18.9762978505501145   T   T   T
  4.4909943947327156  2.6088383984214571 21.0058520998457006   T   T   T
  5.3639626550202495  2.0712023465111740 21.0175444666110138   T   T   T
  4.6857186656940870  3.5654569323737952 21.3157459306219934   T   T   T
  3.7954750330649052  2.1652731850672655 21.6140398669462215   T   T   T
