N2_Cu100
 1.0000000000000000
    10.2106219203337467    0.0000000000000000    0.0000000000000000
     0.0000000000000000   10.2106219203337467    0.0000000000000000
     0.0000000000000000    0.0000000000000000   35.4149999999999991
 Cu  N  
  64   2
Selective dynamics
Cartesian
  1.2763277400417183  1.2763277400417183 15.0000000000000000   F   F   F
  3.8289832201251550  1.2763277400417183 15.0000000000000000   F   F   F
  6.3816387002085921  1.2763277400417183 15.0000000000000000   F   F   F
  8.9342941802920279  1.2763277400417183 15.0000000000000000   F   F   F
  1.2763277400417183  3.8289832201251550 15.0000000000000000   F   F   F
  3.8289832201251550  3.8289832201251550 15.0000000000000000   F   F   F
  6.3816387002085921  3.8289832201251550 15.0000000000000000   F   F   F
  8.9342941802920279  3.8289832201251550 15.0000000000000000   F   F   F
  1.2763277400417183  6.3816387002085921 15.0000000000000000   F   F   F
  3.8289832201251550  6.3816387002085921 15.0000000000000000   F   F   F
  6.3816387002085921  6.3816387002085921 15.0000000000000000   F   F   F
  8.9342941802920279  6.3816387002085921 15.0000000000000000   F   F   F
  1.2763277400417183  8.9342941802920279 15.0000000000000000   F   F   F
  3.8289832201251550  8.9342941802920279 15.0000000000000000   F   F   F
  6.3816387002085921  8.9342941802920279 15.0000000000000000   F   F   F
  8.9342941802920279  8.9342941802920279 15.0000000000000000   F   F   F
  0.0000000000000000  0.0000000000000000 16.8049999999999997   F   F   F
  2.5526554800834367  0.0000000000000000 16.8049999999999997   F   F   F
  5.1053109601668734  0.0000000000000000 16.8049999999999997   F   F   F
  7.6579664402503100  0.0000000000000000 16.8049999999999997   F   F   F
  0.0000000000000000  2.5526554800834367 16.8049999999999997   F   F   F
  2.5526554800834367  2.5526554800834367 16.8049999999999997   F   F   F
  5.1053109601668734  2.5526554800834367 16.8049999999999997   F   F   F
  7.6579664402503100  2.5526554800834367 16.8049999999999997   F   F   F
  0.0000000000000000  5.1053109601668734 16.8049999999999997   F   F   F
  2.5526554800834367  5.1053109601668734 16.8049999999999997   F   F   F
  5.1053109601668734  5.1053109601668734 16.8049999999999997   F   F   F
  7.6579664402503100  5.1053109601668734 16.8049999999999997   F   F   F
  0.0000000000000000  7.6579664402503100 16.8049999999999997   F   F   F
  2.5526554800834367  7.6579664402503100 16.8049999999999997   F   F   F
  5.1053109601668734  7.6579664402503100 16.8049999999999997   F   F   F
  7.6579664402503100  7.6579664402503100 16.8049999999999997   F   F   F
  1.2763500704860085  1.2763050884329377 18.6315220747023247   T   T   T
  3.8289907288342726  1.2762983396566523 18.6315257070718658   T   T   T
  6.3816206058906042  1.2763013840140316 18.6315212172649396   T   T   T
  8.9342845915234257  1.2763222749665299 18.6315142904128237   T   T   T
  1.2763582190179910  3.8290098738055294 18.6315249297834491   T   T   T
  3.8289940235111435  3.8290226054635381 18.6315343202327739   T   T   T
  6.3816159685461757  3.8290167478486890 18.6315248639427757   T   T   T
  8.9342779275488962  3.8289897337283483 18.6315176509165426   T   T   T
  1.2763783993438349  6.3816535351211288 18.6315666882101745   T   T   T
  3.8289980515356983  6.3816757628415219 18.6315809761055853   T   T   T
  6.3815996866444369  6.3816440541246111 18.6315744423813143   T   T   T
  8.9342649364928679  6.3816563974664664 18.6315530577005681   T   T   T
  1.2763776208047097  8.9342740663138311 18.6315621263073758   T   T   T
  3.8289968697621735  8.9342473815691132 18.6315750503146162   T   T   T
  6.3815993794959338  8.9342821615291790 18.6315726898816152   T   T   T
  8.9342672033080373  8.9342754226142791 18.6315482118118716   T   T   T
 10.2106217216646620  0.0000016951775347 20.4063265277028592   T   T   T
  2.5526878534730502 10.2105636324009375 20.4064039780465940   T   T   T
  5.1052905243429070 10.2105843649717567 20.4063604198095518   T   T   T
  7.6579230273219681 10.2105597474093432 20.4064095817026114   T   T   T
 10.2106177310401467  2.5526553057307595 20.4063559210919152   T   T   T
  2.5526483278608540  2.5526576007023873 20.4063313163927944   T   T   T
  5.1053123010216117  2.5526540322665174 20.4063251072217362   T   T   T
  7.6579747411575569  2.5526552201572286 20.4063436786015977   T   T   T
  0.0000026450720020  5.1053109346855727 20.4063218509834670   T   T   T
  2.5526914860256054  5.1053581271025514 20.4063707717159453   T   T   T
  5.1052868026363454  5.1053365184503869 20.4063067953768531   T   T   T
  7.6579456586107293  5.1053532921515590 20.4063707651450876   T   T   T
  0.0000747871295305  7.6579612369367620 20.4064190598457138   T   T   T
  2.5526828549830798  7.6579596321968850 20.4061174941378667   T   T   T
  5.1052640266755249  7.6579546858214433 20.4060453922189247   T   T   T
  7.6580079836356667  7.6579635377732629 20.4062564139324394   T   T   T
  3.8103195214306291  7.5108179577949450 24.6303325799219657   T   T   T
  4.9213689564430796  7.5344184345025349 24.5897684456738119   T   T   T
