NO_Pd100
 1.0000000000000000
     8.2519361364470107    0.0000000000000000    0.0000000000000000
     0.0000000000000000    8.2519361364470107    0.0000000000000000
     0.0000000000000000    0.0000000000000000   35.8350000000000009
 Pd  N   O  
  36   1   1
Selective dynamics
Cartesian
  1.3753226894078350  1.3753226894078350 15.0000000000000000   F   F   F
  4.1259680682235054  1.3753226894078350 15.0000000000000000   F   F   F
  6.8766134470391780  1.3753226894078350 15.0000000000000000   F   F   F
  1.3753226894078350  4.1259680682235054 15.0000000000000000   F   F   F
  4.1259680682235054  4.1259680682235054 15.0000000000000000   F   F   F
  6.8766134470391780  4.1259680682235054 15.0000000000000000   F   F   F
  1.3753226894078350  6.8766134470391780 15.0000000000000000   F   F   F
  4.1259680682235054  6.8766134470391780 15.0000000000000000   F   F   F
  6.8766134470391780  6.8766134470391780 15.0000000000000000   F   F   F
  0.0000000000000000  0.0000000000000000 16.9450000000000003   F   F   F
  2.7506453788156700  0.0000000000000000 16.9450000000000003   F   F   F
  5.5012907576313399  0.0000000000000000 16.9450000000000003   F   F   F
  0.0000000000000000  2.7506453788156700 16.9450000000000003   F   F   F
  2.7506453788156700  2.7506453788156700 16.9450000000000003   F   F   F
  5.5012907576313399  2.7506453788156700 16.9450000000000003   F   F   F
  0.0000000000000000  5.5012907576313399 16.9450000000000003   F   F   F
  2.7506453788156700  5.5012907576313399 16.9450000000000003   F   F   F
  5.5012907576313399  5.5012907576313399 16.9450000000000003   F   F   F
  1.3750149488279064  1.3760340394786199 18.9305158241900848   T   T   T
  4.1236285848169096  1.3609646544411897 18.9622907304132120   T   T   T
  6.8778862622652310  1.3609364953957515 18.9619417461931654   T   T   T
  1.3753352409923556  4.1264715294237764 18.9294857255275133   T   T   T
  4.1329643528796565  4.1270272953094747 18.9341165961756808   T   T   T
  6.8693485575682889  4.1269784494882495 18.9339199189452145   T   T   T
  1.3750146372040111  6.8754945946284023 18.9315277230526036   T   T   T
  4.1228573847456174  6.8925794374525351 18.9641940333865975   T   T   T
  6.8786303874227936  6.8925360305092491 18.9638384831691553   T   T   T
  8.2105593167394719  0.0001497347621472 21.0271950938059931   T   T   T
  2.7892711351414627  0.0002334429950142 21.0283754301340338   T   T   T
  5.4999758990898329  0.0014799573481840 20.9886316640568396   T   T   T
  8.2434486089750880  2.7699664483721897 20.9084325448940440   T   T   T
  2.7585633402784140  2.7700655581450442 20.9089841946000234   T   T   T
  5.5010495519502092  2.7459571782384624 20.9405635695198704   T   T   T
  8.2437182552521922  5.4819003823205898 20.9108638352293106   T   T   T
  2.7583951984252084  5.4819459963051358 20.9114863461898324   T   T   T
  5.5011192906419195  5.5095335745745038 20.9423162722360168   T   T   T
  1.3731099503562834  0.0229439984118558 22.3572361305539111   T   T   T
  1.3719826405488977  0.0531398533976970 23.5530357827149324   T   T   T
