CO_Pd110
 1.0000000000000000
    11.6699999999999999    0.0000000000000000    0.0000000000000000
     0.0000000000000000    5.5012907576313399    0.0000000000000000
     0.0000000000000000    0.0000000000000000   34.1259680682235071
 Pd  O   C  
  24   1   1
Selective dynamics
Cartesian
  1.9449999999999998  1.3753226894078348 14.9999999999999929   F   F   F
  5.8349999999999991  1.3753226894078348 14.9999999999999929   F   F   F
  9.7249999999999996  1.3753226894078348 14.9999999999999929   F   F   F
  1.9449999999999998  4.1259680682235054 14.9999999999999929   F   F   F
  5.8349999999999991  4.1259680682235054 14.9999999999999929   F   F   F
  9.7249999999999996  4.1259680682235054 14.9999999999999929   F   F   F
  0.0000000000000000  0.0000000000000000 16.3753226894078345   F   F   F
  3.8899999999999997  0.0000000000000000 16.3753226894078345   F   F   F
  7.7799999999999994  0.0000000000000000 16.3753226894078345   F   F   F
  0.0000000000000000  2.7506453788156695 16.3753226894078345   F   F   F
  3.8899999999999997  2.7506453788156695 16.3753226894078345   F   F   F
  7.7799999999999994  2.7506453788156695 16.3753226894078345   F   F   F
  1.9256566126377965  1.3772922089840878 17.7864342717646622   T   T   T
  5.8471480409376904  1.3773984586494012 17.7970227451558536   T   T   T
  9.7283907539086485  1.3753712688518607 17.8238568029947935   T   T   T
  1.9593295224480511  4.1290691931250878 17.8291038039817380   T   T   T
  5.8257695804896237  4.1283905444525475 17.8358029330041319   T   T   T
  9.7310207822815613  4.1261219990916764 17.8175393889115021   T   T   T
  0.0089647176071322  5.4997680862514864 19.1722334285072407   T   T   T
  3.8823840581306990  0.0248715900167130 19.2163343008772074   T   T   T
  7.7844473887066048  5.4979967676408084 19.1674684589489139   T   T   T
  0.0097437451580528  2.7531432777110179 19.1714265191798354   T   T   T
  3.8811681403158316  2.7351127177374570 19.2132037996594818   T   T   T
  7.7845371465576028  2.7548702159259228 19.1667758216105071   T   T   T
  4.6330447521526557  1.3927391634704589 21.7328658911198005   T   T   T
  4.3019327746834399  1.3857956624828283 20.6005858619044666   T   T   T
