CO_Pt100
 1.0000000000000000
     8.3155757467537992    0.0000000000000000    0.0000000000000000
     0.0000000000000000    8.3155757467537992    0.0000000000000000
     0.0000000000000000    0.0000000000000000   35.8800000000000026
 Pt  O   C  
  36   1   1
Selective dynamics
Cartesian
  1.3859292911256331  1.3859292911256331 15.0000000000000018   F   F   F
  4.1577878733768996  1.3859292911256331 15.0000000000000018   F   F   F
  6.9296464556281654  1.3859292911256331 15.0000000000000018   F   F   F
  1.3859292911256331  4.1577878733768996 15.0000000000000018   F   F   F
  4.1577878733768996  4.1577878733768996 15.0000000000000018   F   F   F
  6.9296464556281654  4.1577878733768996 15.0000000000000018   F   F   F
  1.3859292911256331  6.9296464556281654 15.0000000000000018   F   F   F
  4.1577878733768996  6.9296464556281654 15.0000000000000018   F   F   F
  6.9296464556281654  6.9296464556281654 15.0000000000000018   F   F   F
  0.0000000000000000  0.0000000000000000 16.9600000000000009   F   F   F
  2.7718585822512662  0.0000000000000000 16.9600000000000009   F   F   F
  5.5437171645025325  0.0000000000000000 16.9600000000000009   F   F   F
  0.0000000000000000  2.7718585822512662 16.9600000000000009   F   F   F
  2.7718585822512662  2.7718585822512662 16.9600000000000009   F   F   F
  5.5437171645025325  2.7718585822512662 16.9600000000000009   F   F   F
  0.0000000000000000  5.5437171645025325 16.9600000000000009   F   F   F
  2.7718585822512662  5.5437171645025325 16.9600000000000009   F   F   F
  5.5437171645025325  5.5437171645025325 16.9600000000000009   F   F   F
  1.3828270915946561  1.3834907318031862 18.9426006171880523   T   T   T
  4.1585515990225534  1.3840642778590033 18.9446824896293293   T   T   T
  6.9362609639764967  1.3838203559761266 18.9403116145157391   T   T   T
  1.3989518091053637  4.1715544754047134 18.9685099411604163   T   T   T
  4.1607780884906589  4.1607523313630104 18.9472597194081018   T   T   T
  6.9264920174658666  4.1718245398318663 18.9679988831671160   T   T   T
  1.4000970201615350  6.9132490068729675 18.9710032046981780   T   T   T
  4.1608979511050972  6.9254608557018109 18.9494432264765642   T   T   T
  6.9254318856241976  6.9134279632987274 18.9708906124340437   T   T   T
  0.0033933329821641  8.3048412609420748 20.9384001002080957   T   T   T
  2.7706515676622674  0.0091905586714188 20.9253493619519411   T   T   T
  5.5522582621483352  0.0106056054110916 20.9214690692158918   T   T   T
  0.0033782326654598  2.7787934719605962 20.9354980307864480   T   T   T
  2.7691323582937599  2.7581626019830083 20.9192363074873882   T   T   T
  5.5537207936116477  2.7578616328317920 20.9152177985730425   T   T   T
  0.0105537688063173  5.5418651646825916 20.9797290824283920   T   T   T
  2.7812132516841928  5.5411012093880494 21.0519308198821555   T   T   T
  5.5615079086769068  5.5421338042147523 21.0429297035255054   T   T   T
  4.1865328567235176  5.4225524040253728 23.6891922005941566   T   T   T
  4.1796376278824914  5.4745820408170056 22.5032832053532488   T   T   T
