CH3_Pd111
 1.0000000000000000
     8.2519361364470107    0.0000000000000000    0.0000000000000000
     4.1259680682235054    7.1463863245699208    0.0000000000000000
     0.0000000000000000    0.0000000000000000   36.7376776414429358
 Pd  C   H  
  36   1   3
Selective dynamics
Cartesian
  0.0000000000000000  0.0000000000000000 15.0000000000000000   F   F   F
  2.7506453788156700  0.0000000000000000 15.0000000000000000   F   F   F
  5.5012907576313399  0.0000000000000000 15.0000000000000000   F   F   F
  1.3753226894078350  2.3821287748566400 15.0000000000000000   F   F   F
  4.1259680682235054  2.3821287748566400 15.0000000000000000   F   F   F
  6.8766134470391753  2.3821287748566400 15.0000000000000000   F   F   F
  2.7506453788156700  4.7642575497132800 15.0000000000000000   F   F   F
  5.5012907576313399  4.7642575497132800 15.0000000000000000   F   F   F
  8.2519361364470107  4.7642575497132800 15.0000000000000000   F   F   F
  1.3753226894078350  0.7940429249522137 17.2458925471476441   F   F   F
  4.1259680682235045  0.7940429249522137 17.2458925471476441   F   F   F
  6.8766134470391744  0.7940429249522137 17.2458925471476441   F   F   F
  2.7506453788156700  3.1761716998088549 17.2458925471476441   F   F   F
  5.5012907576313399  3.1761716998088549 17.2458925471476441   F   F   F
  8.2519361364470090  3.1761716998088549 17.2458925471476441   F   F   F
  4.1259680682235054  5.5583004746654945 17.2458925471476441   F   F   F
  6.8766134470391753  5.5583004746654945 17.2458925471476441   F   F   F
  9.6272588258548453  5.5583004746654945 17.2458925471476441   F   F   F
  8.2524200552133600  1.5866241982565457 19.5259215306888194   T   T   T
  2.7501100055417953  1.5865383383665239 19.5262513854182451   T   T   T
  5.5008116557751787  1.5899943162879635 19.5177430359209794   T   T   T
  9.6271737328015217  3.9695139642772257 19.5262602569043686   T   T   T
  4.1292079362893199  3.9715524873183448 19.5435586650484545   T   T   T
  6.8731107350979519  3.9715847595754807 19.5433614857594691   T   T   T
 11.0043185205984688  6.3514531755779062 19.5174333312938550   T   T   T
  5.5011748448342290  6.3470453731878962 19.5437748795530624   T   T   T
  8.2500012579019550  6.3506573173437015 19.5178367932870245   T   T   T
 12.3767118801843843  7.1450624227167152 21.8284478466682152   T   T   T
  6.8783568150164172  7.1463183066720823 21.8288984527405177   T   T   T
  9.6270631537468248  7.1437670446701489 21.8159756534845535   T   T   T
  1.3755818799454020  2.3801553687524257 21.8344042543125951   T   T   T
  4.1237715552381440  2.3769140128571191 21.8237786260516131   T   T   T
  6.8800256276058924  2.3744348651839831 21.8227223404541526   T   T   T
 10.9974798765399218  4.7654359209402042 21.8266357787038423   T   T   T
  5.5013262716675255  4.7545229014534724 21.9556566109437625   T   T   T
  8.2548229049123698  4.7644553256947360 21.8266922271615336   T   T   T
  5.5088527103876288  4.5830394185325867 23.9813978028877486   T   T   T
  5.7934584358203685  3.5553345567461281 24.2415169738393992   T   T   T
  4.4907622689114550  4.8222090951370822 24.3139670711250169   T   T   T
  6.2444239854158727  5.3156330219418315 24.3369829731607226   T   T   T
