HCOOH_Rh110
 1.0000000000000000
    11.4089999999999989    0.0000000000000000    0.0000000000000000
     0.0000000000000000    5.3782541777048811    0.0000000000000000
     0.0000000000000000    0.0000000000000000   34.0336906332786597
 Rh  O   C   H  
  24   2   1   2
Selective dynamics
Cartesian
  1.9014999999999997  1.3445635444262203 15.0000000000000000   F   F   F
  5.7044999999999995  1.3445635444262203 15.0000000000000000   F   F   F
  9.5074999999999985  1.3445635444262203 15.0000000000000000   F   F   F
  1.9014999999999997  4.0336906332786606 15.0000000000000000   F   F   F
  5.7044999999999995  4.0336906332786606 15.0000000000000000   F   F   F
  9.5074999999999985  4.0336906332786606 15.0000000000000000   F   F   F
  0.0000000000000000  0.0000000000000000 16.3445635444262187   F   F   F
  3.8029999999999995  0.0000000000000000 16.3445635444262187   F   F   F
  7.6059999999999990  0.0000000000000000 16.3445635444262187   F   F   F
  0.0000000000000000  2.6891270888524406 16.3445635444262187   F   F   F
  3.8029999999999995  2.6891270888524406 16.3445635444262187   F   F   F
  7.6059999999999990  2.6891270888524406 16.3445635444262187   F   F   F
  1.9035089795658864  1.3317980861546146 17.7320318347695292   T   T   T
  5.7056294151502955  1.3318029105379801 17.7233449951269435   T   T   T
  9.5062268641266385  1.3391289448832524 17.7373897591655201   T   T   T
  1.8979020573407668  4.0197144586054865 17.7352723169412982   T   T   T
  5.7160437993150062  4.0210368291441014 17.7167976541318204   T   T   T
  9.5047917309424310  4.0218812860352386 17.7393984035899486   T   T   T
  0.0013112794388056  5.3651815363699464 18.9798024242457650   T   T   T
  3.8259734258082396  5.3614255414388552 19.0105827212897829   T   T   T
  7.5967449529993711  5.3675455968514232 18.9860606422115161   T   T   T
  0.0051839512715861  2.6770985786735517 18.9904032599861701   T   T   T
  3.8155645606091140  2.6513051466648663 18.9504980707445512   T   T   T
  7.5957233426785331  2.6760691715652629 18.9923573859591635   T   T   T
  3.0856002448085187  1.7901329830401047 21.7782124442629232   T   T   T
  3.6227714136278397  5.0743144489290062 21.0803327321721596   T   T   T
  3.2601779698278737  0.5141396701143318 21.9529954710772515   T   T   T
  3.3269299787483617  2.0231429323031249 20.7625537246602434   T   T   T
  3.0531305383387295  0.1615281726317588 22.9725915835424956   T   T   T
