H2O_Pd111
 1.0000000000000000
     8.2519361364470107    0.0000000000000000    0.0000000000000000
     4.1259680682235054    7.1463863245699208    0.0000000000000000
     0.0000000000000000    0.0000000000000000   36.7376776414429358
 Pd  O   H  
  36   1   2
Selective dynamics
Cartesian
  0.0000000000000000  0.0000000000000000 15.0000000000000000   F   F   F
  2.7506453788156700  0.0000000000000000 15.0000000000000000   F   F   F
  5.5012907576313399  0.0000000000000000 15.0000000000000000   F   F   F
  1.3753226894078350  2.3821287748566400 15.0000000000000000   F   F   F
  4.1259680682235054  2.3821287748566400 15.0000000000000000   F   F   F
  6.8766134470391753  2.3821287748566400 15.0000000000000000   F   F   F
  2.7506453788156700  4.7642575497132800 15.0000000000000000   F   F   F
  5.5012907576313399  4.7642575497132800 15.0000000000000000   F   F   F
  8.2519361364470107  4.7642575497132800 15.0000000000000000   F   F   F
  1.3753226894078350  0.7940429249522137 17.2458925471476441   F   F   F
  4.1259680682235045  0.7940429249522137 17.2458925471476441   F   F   F
  6.8766134470391744  0.7940429249522137 17.2458925471476441   F   F   F
  2.7506453788156700  3.1761716998088549 17.2458925471476441   F   F   F
  5.5012907576313399  3.1761716998088549 17.2458925471476441   F   F   F
  8.2519361364470090  3.1761716998088549 17.2458925471476441   F   F   F
  4.1259680682235054  5.5583004746654945 17.2458925471476441   F   F   F
  6.8766134470391753  5.5583004746654945 17.2458925471476441   F   F   F
  9.6272588258548453  5.5583004746654945 17.2458925471476441   F   F   F
  8.2583951650930523  1.5923838640848353 19.5435128486598160   T   T   T
  2.7483656152455080  1.5886663921810924 19.5383330581042500   T   T   T
  5.5045565817101840  1.5862163097082516 19.5252929455033808   T   T   T
  9.6274959494935111  3.9635653230626078 19.5430084912459030   T   T   T
  4.1259318047142344  3.9707750839818940 19.5313160679425941   T   T   T
  6.8760530300685545  3.9707566198025486 19.5312965368754732   T   T   T
 11.0021326800162598  6.3538019125591143 19.5259862305658380   T   T   T
  5.5009430223938187  6.3522641530039978 19.5311973493606956   T   T   T
  8.2548385842301801  6.3506340691191649 19.5259196626743545   T   T   T
 12.3711773146041999  7.1354915354052224 21.8334781149252031   T   T   T
  6.8848891695193979  7.1338245508954845 21.8275763311128408   T   T   T
  9.6265302224564344  7.1449105123352652 21.8465715275520047   T   T   T
  9.6164158558571788  2.3849516086315083 21.8490053450827730   T   T   T
  4.1386209422371314  2.3807530582972611 21.8214339916492435   T   T   T
  6.8617224211023062  2.3808752155150090 21.8353978564494504   T   T   T
 11.0081670936347340  4.7766366506085056 21.8328534785797856   T   T   T
  5.5001519157373764  4.7655961075624758 21.8465550277387557   T   T   T
  8.2461942104274115  4.7761742118900408 21.8359581617236813   T   T   T
  1.6127744393240677  2.2944237392673545 24.1731857796303800   T   T   T
  1.9690900918282965  1.3799555256366536 24.1900559235699717   T   T   T
  2.4024854554641282  2.8749570737386421 24.2108977275713073   T   T   T
