NH3_Ag110
 1.0000000000000000
    12.2699999999999996    0.0000000000000000    0.0000000000000000
     0.0000000000000000    5.7841334701059592    0.0000000000000000
     0.0000000000000000    0.0000000000000000   34.3381001025794674
 Ag  N   H  
  24   1   3
Selective dynamics
Cartesian
  2.0449999999999999  1.4460333675264898 15.0000000000000053   F   F   F
  6.1349999999999998  1.4460333675264898 15.0000000000000053   F   F   F
 10.2249999999999979  1.4460333675264898 15.0000000000000053   F   F   F
  2.0449999999999999  4.3381001025794692 15.0000000000000053   F   F   F
  6.1349999999999998  4.3381001025794692 15.0000000000000053   F   F   F
 10.2249999999999979  4.3381001025794692 15.0000000000000053   F   F   F
  0.0000000000000000  0.0000000000000000 16.4460333675264891   F   F   F
  4.0899999999999999  0.0000000000000000 16.4460333675264891   F   F   F
  8.1799999999999997  0.0000000000000000 16.4460333675264891   F   F   F
  0.0000000000000000  2.8920667350529796 16.4460333675264891   F   F   F
  4.0899999999999999  2.8920667350529796 16.4460333675264891   F   F   F
  8.1799999999999997  2.8920667350529796 16.4460333675264891   F   F   F
  2.0438918054411808  1.4502918377439307 17.9747186848299876   T   T   T
  6.1369661308898111  1.4496450437994093 17.9741141721000197   T   T   T
 10.2255303941047213  1.4445854698019791 17.9854791468666626   T   T   T
  2.0447852989476663  4.3330484993852281 17.9761184701223158   T   T   T
  6.1360638618899754  4.3335394855834410 17.9751233184159886   T   T   T
 10.2255105599380176  4.3393549733739087 17.9860112661759928   T   T   T
  0.0078248870293958  0.0000434013565104 19.3613162976600215   T   T   T
  4.0889748676761393  0.0003983609274473 19.3169261323021075   T   T   T
  8.1731721027200663  5.7838726829117757 19.3619708221034372   T   T   T
  0.0003320785839534  2.8916781424300084 19.3571975298148438   T   T   T
  4.0867498266120128  2.8947836018121813 19.4028998113281155   T   T   T
  8.1822181355706647  2.8915605189152003 19.3567690174169726   T   T   T
  4.1936512926032439  2.8225055122930418 21.7750385309136227   T   T   T
  4.9785510789136582  2.2395293196839603 22.0745257813974298   T   T   T
  4.3268355602792354  3.7526839569064676 22.1791562375691882   T   T   T
  3.3427592275409785  2.4263942785359376 22.1813394722389958   T   T   T
