N2_Ir100
 1.0000000000000000
     8.1458701192690270    0.0000000000000000    0.0000000000000000
     0.0000000000000000    8.1458701192690270    0.0000000000000000
     0.0000000000000000    0.0000000000000000   35.7599999999999980
 Ir  N  
  36   2
Selective dynamics
Cartesian
  1.3576450198781711  1.3576450198781711 15.0000000000000018   F   F   F
  4.0729350596345135  1.3576450198781711 15.0000000000000018   F   F   F
  6.7882250993908553  1.3576450198781711 15.0000000000000018   F   F   F
  1.3576450198781711  4.0729350596345135 15.0000000000000018   F   F   F
  4.0729350596345135  4.0729350596345135 15.0000000000000018   F   F   F
  6.7882250993908553  4.0729350596345135 15.0000000000000018   F   F   F
  1.3576450198781711  6.7882250993908553 15.0000000000000018   F   F   F
  4.0729350596345135  6.7882250993908553 15.0000000000000018   F   F   F
  6.7882250993908553  6.7882250993908553 15.0000000000000018   F   F   F
  0.0000000000000000  0.0000000000000000 16.9200000000000017   F   F   F
  2.7152900397563422  0.0000000000000000 16.9200000000000017   F   F   F
  5.4305800795126844  0.0000000000000000 16.9200000000000017   F   F   F
  0.0000000000000000  2.7152900397563422 16.9200000000000017   F   F   F
  2.7152900397563422  2.7152900397563422 16.9200000000000017   F   F   F
  5.4305800795126844  2.7152900397563422 16.9200000000000017   F   F   F
  0.0000000000000000  5.4305800795126844 16.9200000000000017   F   F   F
  2.7152900397563422  5.4305800795126844 16.9200000000000017   F   F   F
  5.4305800795126844  5.4305800795126844 16.9200000000000017   F   F   F
  1.3680348702446350  1.3679601188364809 18.8922050531523773   T   T   T
  4.0617742667783396  1.3690874009186778 18.8935269478790531   T   T   T
  6.7878877029391127  1.3544054870156654 18.8729087883974529   T   T   T
  1.3696563547973026  4.0611306447451252 18.8940884102721292   T   T   T
  4.0600529227738047  4.0599196412364265 18.8956155198589215   T   T   T
  6.7879041426801647  4.0751670904668726 18.8731957634077112   T   T   T
  1.3547032315756609  6.7874337973520040 18.8729189853350903   T   T   T
  4.0755278543841333  6.7874560956045142 18.8729843806739517   T   T   T
  6.7875678766161771  6.7869917239884838 18.8865440782865264   T   T   T
  0.0044302748483705  0.0038646703167303 20.7375207007306628   T   T   T
  2.7147342831874193  8.1231434838694732 20.7327913685384999   T   T   T
  5.4253942139663245  0.0041308159609553 20.7379603843483622   T   T   T
  8.1230227907844110  2.7139302240744607 20.7337285890735679   T   T   T
  2.7159937502383067  2.7169602795220280 20.8813846638383360   T   T   T
  5.4547699079492613  2.7139087670693836 20.7360088136414440   T   T   T
  0.0048556209303942  5.4247929201355092 20.7383431284441677   T   T   T
  2.7147093103379150  5.4550177031172797 20.7364345584077476   T   T   T
  5.4249128866045844  5.4244751330899996 20.7387790797877152   T   T   T
  2.6713649201357796  2.6409320980496962 22.7849985810208224   T   T   T
  2.6426374199311837  2.5866499164369432 23.9176972102190568   T   T   T
