H2CO_Pd100
 1.0000000000000000
     8.2519361364470107    0.0000000000000000    0.0000000000000000
     0.0000000000000000    8.2519361364470107    0.0000000000000000
     0.0000000000000000    0.0000000000000000   35.8350000000000009
 Pd  C   O   H  
  36   1   1   2
Selective dynamics
Cartesian
  1.3753226894078350  1.3753226894078350 15.0000000000000000   F   F   F
  4.1259680682235054  1.3753226894078350 15.0000000000000000   F   F   F
  6.8766134470391780  1.3753226894078350 15.0000000000000000   F   F   F
  1.3753226894078350  4.1259680682235054 15.0000000000000000   F   F   F
  4.1259680682235054  4.1259680682235054 15.0000000000000000   F   F   F
  6.8766134470391780  4.1259680682235054 15.0000000000000000   F   F   F
  1.3753226894078350  6.8766134470391780 15.0000000000000000   F   F   F
  4.1259680682235054  6.8766134470391780 15.0000000000000000   F   F   F
  6.8766134470391780  6.8766134470391780 15.0000000000000000   F   F   F
  0.0000000000000000  0.0000000000000000 16.9450000000000003   F   F   F
  2.7506453788156700  0.0000000000000000 16.9450000000000003   F   F   F
  5.5012907576313399  0.0000000000000000 16.9450000000000003   F   F   F
  0.0000000000000000  2.7506453788156700 16.9450000000000003   F   F   F
  2.7506453788156700  2.7506453788156700 16.9450000000000003   F   F   F
  5.5012907576313399  2.7506453788156700 16.9450000000000003   F   F   F
  0.0000000000000000  5.5012907576313399 16.9450000000000003   F   F   F
  2.7506453788156700  5.5012907576313399 16.9450000000000003   F   F   F
  5.5012907576313399  5.5012907576313399 16.9450000000000003   F   F   F
  1.3833517211286901  1.3806300067967971 18.9480404103572937   T   T   T
  4.1348410601285579  1.3942864458598334 18.9420736752007990   T   T   T
  6.8776194450024768  1.3751141754269478 18.9532800726148629   T   T   T
  1.3876240338736734  4.1187320040298374 18.9641579838199448   T   T   T
  4.1286667876024721  4.1436622918883934 18.9319353044024723   T   T   T
  6.8714053222350184  4.1163889055449827 18.9619657291823529   T   T   T
  1.3817830181416804  6.8898083145494500 18.9521497646207706   T   T   T
  4.1325599334476273  6.8938034696094626 18.9376801144760414   T   T   T
  6.8751468563836529  6.8904632455751482 18.9571680923419237   T   T   T
  0.0118511156312013  0.0108085908850392 20.9402815706386356   T   T   T
  2.7566249760536232  8.2454717479753317 20.9602856602450096   T   T   T
  5.5072806549753901  8.2442766664594629 20.9859079081762232   T   T   T
  0.0091797069788106  2.7494463236663229 20.9484785795368005   T   T   T
  2.6990460159256835  2.8178595900723860 20.9573464059493872   T   T   T
  5.5665806468802881  2.8209902392520680 20.9531804874145529   T   T   T
  0.0049973948150972  5.5094157050245958 20.9380361080830752   T   T   T
  2.7614752408625503  5.5393761112929143 20.9309354083907238   T   T   T
  5.4978301486541881  5.5338417213245714 20.9291378832463302   T   T   T
  4.1391682449043747  0.8525002974448276 22.4848407190838664   T   T   T
  4.1362248036093501  2.1760276149438074 22.4568815957512946   T   T   T
  3.1975007508473525  0.3690033620373918 22.9147484983707770   T   T   T
  5.0551471775749333  0.3796036774028190 22.9680760790707232   T   T   T
