CO2_Ir110
 1.0000000000000000
    11.5199999999999996    0.0000000000000000    0.0000000000000000
     0.0000000000000000    5.4305800795126853    0.0000000000000000
     0.0000000000000000    0.0000000000000000   34.0729350596345171
 Ir  C   O  
  24   1   2
Selective dynamics
Cartesian
  1.9199999999999999  1.3576450198781711 15.0000000000000018   F   F   F
  5.7599999999999989  1.3576450198781711 15.0000000000000018   F   F   F
  9.5999999999999996  1.3576450198781711 15.0000000000000018   F   F   F
  1.9199999999999999  4.0729350596345135 15.0000000000000018   F   F   F
  5.7599999999999989  4.0729350596345135 15.0000000000000018   F   F   F
  9.5999999999999996  4.0729350596345135 15.0000000000000018   F   F   F
  0.0000000000000000  0.0000000000000000 16.3576450198781735   F   F   F
  3.8399999999999999  0.0000000000000000 16.3576450198781735   F   F   F
  7.6799999999999997  0.0000000000000000 16.3576450198781735   F   F   F
  0.0000000000000000  2.7152900397563422 16.3576450198781735   F   F   F
  3.8399999999999999  2.7152900397563422 16.3576450198781735   F   F   F
  7.6799999999999997  2.7152900397563422 16.3576450198781735   F   F   F
  1.9160333002746557  1.3570978981708290 17.7787643458498756   T   T   T
  5.7576838124554612  1.3581867125128417 17.7932197197953172   T   T   T
  9.6058988590541983  1.3563121759020187 17.7782560881277156   T   T   T
  1.9169743628499849  4.0744766332560589 17.7841210677755441   T   T   T
  5.7606600143602726  4.0731153573339629 17.7929839943029116   T   T   T
  9.6022548724335568  4.0731912018556766 17.7800467458938627   T   T   T
  0.0012037019951660  5.4303593357106106 19.0042737558796340   T   T   T
  3.8392037275960176  0.0006614441913198 18.9999059970944906   T   T   T
  7.6809001963238135  0.0023057541998959 18.9949136713730375   T   T   T
 11.5191931808164973  2.7152824941178779 19.0032096373420671   T   T   T
  3.8355301550705008  2.7152435069113525 18.9932212562203162   T   T   T
  7.6868182751192400  2.7117587044282647 18.9973669443821613   T   T   T
  5.5461870974293470  3.3522238162134701 22.2625602058590424   T   T   T
  6.4730630384540335  2.6547905388703765 22.0561969920263294   T   T   T
  4.6305132985885713  4.0548026238756751 22.4879153591131598   T   T   T
