CH3CHO_Ir100
 1.0000000000000000
     8.1458701192690270    0.0000000000000000    0.0000000000000000
     0.0000000000000000    8.1458701192690270    0.0000000000000000
     0.0000000000000000    0.0000000000000000   35.7599999999999980
 Ir  C   O   H  
  36   2   1   4
Selective dynamics
Cartesian
  1.3576450198781711  1.3576450198781711 15.0000000000000018   F   F   F
  4.0729350596345135  1.3576450198781711 15.0000000000000018   F   F   F
  6.7882250993908553  1.3576450198781711 15.0000000000000018   F   F   F
  1.3576450198781711  4.0729350596345135 15.0000000000000018   F   F   F
  4.0729350596345135  4.0729350596345135 15.0000000000000018   F   F   F
  6.7882250993908553  4.0729350596345135 15.0000000000000018   F   F   F
  1.3576450198781711  6.7882250993908553 15.0000000000000018   F   F   F
  4.0729350596345135  6.7882250993908553 15.0000000000000018   F   F   F
  6.7882250993908553  6.7882250993908553 15.0000000000000018   F   F   F
  0.0000000000000000  0.0000000000000000 16.9200000000000017   F   F   F
  2.7152900397563422  0.0000000000000000 16.9200000000000017   F   F   F
  5.4305800795126844  0.0000000000000000 16.9200000000000017   F   F   F
  0.0000000000000000  2.7152900397563422 16.9200000000000017   F   F   F
  2.7152900397563422  2.7152900397563422 16.9200000000000017   F   F   F
  5.4305800795126844  2.7152900397563422 16.9200000000000017   F   F   F
  0.0000000000000000  5.4305800795126844 16.9200000000000017   F   F   F
  2.7152900397563422  5.4305800795126844 16.9200000000000017   F   F   F
  5.4305800795126844  5.4305800795126844 16.9200000000000017   F   F   F
  1.3552248191710168  1.3586010106170445 18.8728994320170926   T   T   T
  4.0805165318813721  1.3585428328256681 18.8741310925809458   T   T   T
  6.7872731128172097  1.3525018789995300 18.8824201724875849   T   T   T
  1.3724324185334513  4.0843213017817863 18.8982077098860941   T   T   T
  4.0624432911860060  4.0868984416058689 18.9047333554074761   T   T   T
  6.7925704116206491  4.0678825297501007 18.8736816274686383   T   T   T
  1.3749628679820782  6.7732557046252770 18.9038512245423007   T   T   T
  4.0655282540567965  6.7774329762390275 18.8982040752724956   T   T   T
  6.7918652440940024  6.7921052212549213 18.8745176011605764   T   T   T
  0.0133236217164589  8.1446636361374942 20.7472165898616012   T   T   T
  2.7183084112971692  0.0216526368852998 20.7356130667998215   T   T   T
  5.4280666667776307  8.1401909375164774 20.7447579499357921   T   T   T
  0.0076511535689978  2.7177046178925672 20.7440685426455715   T   T   T
  2.7178790046154639  2.6961598520128573 20.7281823486902717   T   T   T
  5.4346637067338932  2.7227820623118730 20.7489502228940594   T   T   T
  8.1328459518823397  5.4275708751618321 20.7303782451272696   T   T   T
  2.7225396989828230  5.4367211684199050 20.8315054400202335   T   T   T
  5.4571946220311576  5.4292630859353812 20.7354847519730505   T   T   T
  2.2519195834418597  4.5808472356362175 25.0764562937217548   T   T   T
  2.1103330961608502  4.5987584190218680 23.6014717364801427   T   T   T
  2.7557388078097951  5.4200571915175360 22.9120290852846971   T   T   T
  2.6754604974175127  3.6124742209622793 25.3911331941633591   T   T   T
  2.8911639305124366  5.3929302073984209 25.4313691311731027   T   T   T
  1.2667491096936088  4.6270672720597261 25.5647780870723587   T   T   T
  1.4352801112972307  3.8731059074338812 23.1117345845208639   T   T   T
