NH3_Ag100
 1.0000000000000000
     8.6762002051589384    0.0000000000000000    0.0000000000000000
     0.0000000000000000    8.6762002051589384    0.0000000000000000
     0.0000000000000000    0.0000000000000000   36.1349999999999980
 Ag  N   H  
  36   1   3
Selective dynamics
Cartesian
  1.4460333675264894  1.4460333675264894 15.0000000000000000   F   F   F
  4.3381001025794692  1.4460333675264894 15.0000000000000000   F   F   F
  7.2301668376324475  1.4460333675264894 15.0000000000000000   F   F   F
  1.4460333675264894  4.3381001025794692 15.0000000000000000   F   F   F
  4.3381001025794692  4.3381001025794692 15.0000000000000000   F   F   F
  7.2301668376324475  4.3381001025794692 15.0000000000000000   F   F   F
  1.4460333675264894  7.2301668376324475 15.0000000000000000   F   F   F
  4.3381001025794692  7.2301668376324475 15.0000000000000000   F   F   F
  7.2301668376324475  7.2301668376324475 15.0000000000000000   F   F   F
  0.0000000000000000  0.0000000000000000 17.0450000000000017   F   F   F
  2.8920667350529787  0.0000000000000000 17.0450000000000017   F   F   F
  5.7841334701059575  0.0000000000000000 17.0450000000000017   F   F   F
  0.0000000000000000  2.8920667350529787 17.0450000000000017   F   F   F
  2.8920667350529787  2.8920667350529787 17.0450000000000017   F   F   F
  5.7841334701059575  2.8920667350529787 17.0450000000000017   F   F   F
  0.0000000000000000  5.7841334701059575 17.0450000000000017   F   F   F
  2.8920667350529787  5.7841334701059575 17.0450000000000017   F   F   F
  5.7841334701059575  5.7841334701059575 17.0450000000000017   F   F   F
  1.4458202193847536  1.4386692311491158 19.1527077321822290   T   T   T
  4.3497030519361006  1.4577347533567653 19.1810720349892350   T   T   T
  7.2181765164774063  1.4579939155215791 19.1816854667568286   T   T   T
  1.4458324216825578  4.3459142726349489 19.1525877382028824   T   T   T
  4.3517182012108870  4.3241137863983807 19.1848836780624410   T   T   T
  7.2162250345935322  4.3239537852702838 19.1855736921655406   T   T   T
  1.4458131367818583  7.2288790554345903 19.1656971513941308   T   T   T
  4.3302173413332339  7.2287068814913962 19.1523341745107736   T   T   T
  7.2380962949074279  7.2287449713529925 19.1523785736910312   T   T   T
  8.6751851479551263  0.0009848833871524 21.2484959978191164   T   T   T
  2.8925222643787483  0.0002097784606002 21.2478575732139241   T   T   T
  5.7841603901087755  8.6455715178866708 21.2218392197741359   T   T   T
  0.0234349314226084  2.8925571425457126 21.2296010332375644   T   T   T
  2.8675602603209032  2.8924046343621290 21.2283688082640936   T   T   T
  5.7862025156087658  2.8903184983721668 21.3661155144881647   T   T   T
  8.6738082733696587  5.7816247656068676 21.2501854918615223   T   T   T
  2.8948279469411546  5.7812460200742937 21.2504093500989732   T   T   T
  5.7841588661636241  5.8022224056938647 21.2331843874704980   T   T   T
  5.7226762243886000  2.6247764286841631 23.8007524791748217   T   T   T
  6.5930648573913837  2.2257445604080108 24.1616212024067707   T   T   T
  5.5652485366496327  3.5150315802046399 24.2798673753643577   T   T   T
  4.9619042685734636  1.9923431772722515 24.0614609653569431   T   T   T
