CH3COOH_Au100
 1.0000000000000000
    11.5399826689644573    0.0000000000000000    0.0000000000000000
     0.0000000000000000   11.5399826689644573    0.0000000000000000
     0.0000000000000000    0.0000000000000000   36.1199999999999974
 Au  C   O   H  
  64   2   2   4
Selective dynamics
Cartesian
  1.4424978336205572  1.4424978336205572 14.9999999999999982   F   F   F
  4.3274935008616717  1.4424978336205572 14.9999999999999982   F   F   F
  7.2124891681027856  1.4424978336205572 14.9999999999999982   F   F   F
 10.0974848353439004  1.4424978336205572 14.9999999999999982   F   F   F
  1.4424978336205572  4.3274935008616717 14.9999999999999982   F   F   F
  4.3274935008616717  4.3274935008616717 14.9999999999999982   F   F   F
  7.2124891681027856  4.3274935008616717 14.9999999999999982   F   F   F
 10.0974848353439004  4.3274935008616717 14.9999999999999982   F   F   F
  1.4424978336205572  7.2124891681027856 14.9999999999999982   F   F   F
  4.3274935008616717  7.2124891681027856 14.9999999999999982   F   F   F
  7.2124891681027856  7.2124891681027856 14.9999999999999982   F   F   F
 10.0974848353439004  7.2124891681027856 14.9999999999999982   F   F   F
  1.4424978336205572 10.0974848353439004 14.9999999999999982   F   F   F
  4.3274935008616717 10.0974848353439004 14.9999999999999982   F   F   F
  7.2124891681027856 10.0974848353439004 14.9999999999999982   F   F   F
 10.0974848353439004 10.0974848353439004 14.9999999999999982   F   F   F
  0.0000000000000000  0.0000000000000000 17.0399999999999991   F   F   F
  2.8849956672411143  0.0000000000000000 17.0399999999999991   F   F   F
  5.7699913344822287  0.0000000000000000 17.0399999999999991   F   F   F
  8.6549870017233435  0.0000000000000000 17.0399999999999991   F   F   F
  0.0000000000000000  2.8849956672411143 17.0399999999999991   F   F   F
  2.8849956672411143  2.8849956672411143 17.0399999999999991   F   F   F
  5.7699913344822287  2.8849956672411143 17.0399999999999991   F   F   F
  8.6549870017233435  2.8849956672411143 17.0399999999999991   F   F   F
  0.0000000000000000  5.7699913344822287 17.0399999999999991   F   F   F
  2.8849956672411143  5.7699913344822287 17.0399999999999991   F   F   F
  5.7699913344822287  5.7699913344822287 17.0399999999999991   F   F   F
  8.6549870017233435  5.7699913344822287 17.0399999999999991   F   F   F
  0.0000000000000000  8.6549870017233435 17.0399999999999991   F   F   F
  2.8849956672411143  8.6549870017233435 17.0399999999999991   F   F   F
  5.7699913344822287  8.6549870017233435 17.0399999999999991   F   F   F
  8.6549870017233435  8.6549870017233435 17.0399999999999991   F   F   F
  1.4430706701721214  1.4416276366742540 19.1821150156467830   T   T   T
  4.3272586829729205  1.4414364925914784 19.1825910793571559   T   T   T
  7.2091550163577081  1.4434716580681759 19.1774018666869281   T   T   T
 10.0995370042060095  1.4436941750424970 19.1772311067426848   T   T   T
  1.4407428881348521  4.3256640859833331 19.1771816939280875   T   T   T
  4.3271896988413729  4.3234181198022581 19.1747157907434129   T   T   T
  7.2202656977760169  4.3333734841049019 19.1936960206273426   T   T   T
 10.0896247631001099  4.3352923193521491 19.1972489909383448   T   T   T
  1.4407002094241519  7.2151341289693667 19.1772751231982284   T   T   T
  4.3256842918713883  7.2158345422357932 19.1736715162370714   T   T   T
  7.2204501265911452  7.2067091725527739 19.1877554149668974   T   T   T
 10.0911648542022476  7.2049208864556595 19.1953795637174096   T   T   T
  1.4431325333295755 10.0979696812254058 19.1825298567224927   T   T   T
  4.3259979130722703 10.0985510109675136 19.1816247288596600   T   T   T
  7.2100933022450242 10.0979516987270976 19.1750818620044505   T   T   T
 10.1003058039337841 10.0964501048718400 19.1773870474804262   T   T   T
 11.5392227651977315  0.0003073082188091 21.3053855141439215   T   T   T
  2.8854356672089443  0.0000313306857980 21.3053702321644671   T   T   T
  5.7711724394590069 11.5357894126477714 21.3052905678381563   T   T   T
  8.6544431429737632 11.5399000546072159 21.3061766414010201   T   T   T
 11.5397626375268327  2.8861466193574987 21.3036692060323212   T   T   T
  2.8841095560171777  2.8855370566480616 21.3045043355773132   T   T   T
  5.7704438261862618  2.8871455304915665 21.3029575551433936   T   T   T
  8.6546829877316771  2.8670049081345628 21.2966479263238107   T   T   T
  0.0144842870458505  5.7702414634149184 21.2969474061334196   T   T   T
  2.8834919782022173  5.7703002693137000 21.3050174425278271   T   T   T
  5.7443084263878115  5.7722489095412159 21.2880468465847947   T   T   T
  8.6415866360314038  5.7741998748864907 21.3477625458630591   T   T   T
 11.5393214442020930  8.6538359703510732 21.3038372604525108   T   T   T
  2.8858879671572768  8.6535720500854119 21.3051701700906939   T   T   T
  5.7707967036283421  8.6535445701462166 21.3014000728526973   T   T   T
  8.6532372971049085  8.6752808367661682 21.2909159151198217   T   T   T
  8.1432957062476117  6.4370060339457824 26.3448852321417917   T   T   T
  7.9094551096009900  6.3415890002003561 24.8717728556405611   T   T   T
  8.6418460087754116  5.7581228347631024 24.0714541353892351   T   T   T
  6.7802898492843182  6.9894248613656513 24.4987613797051189   T   T   T
  7.2312028460020086  6.1559707828522745 26.8825638222007690   T   T   T
  8.3685268892021938  7.4806302874364663 26.5958722919069892   T   T   T
  8.9805854964114840  5.8042963318012974 26.6378920335742677   T   T   T
  6.6928193744779803  6.8770370481966392 23.5187344618729881   T   T   T
