H2CO_Cu110
 1.0000000000000000
    10.8300000000000001    0.0000000000000000    0.0000000000000000
     0.0000000000000000    5.1053109601668734    0.0000000000000000
     0.0000000000000000    0.0000000000000000   33.8289832201251528
 Cu  C   O   H  
  24   1   1   2
Selective dynamics
Cartesian
  1.8049999999999999  1.2763277400417183 14.9999999999999982   F   F   F
  5.4149999999999991  1.2763277400417183 14.9999999999999982   F   F   F
  9.0249999999999986  1.2763277400417183 14.9999999999999982   F   F   F
  1.8049999999999999  3.8289832201251550 14.9999999999999982   F   F   F
  5.4149999999999991  3.8289832201251550 14.9999999999999982   F   F   F
  9.0249999999999986  3.8289832201251550 14.9999999999999982   F   F   F
  0.0000000000000000  0.0000000000000000 16.2763277400417152   F   F   F
  3.6099999999999999  0.0000000000000000 16.2763277400417152   F   F   F
  7.2199999999999998  0.0000000000000000 16.2763277400417152   F   F   F
  0.0000000000000000  2.5526554800834367 16.2763277400417152   F   F   F
  3.6099999999999999  2.5526554800834367 16.2763277400417152   F   F   F
  7.2199999999999998  2.5526554800834367 16.2763277400417152   F   F   F
  1.8011161716196957  1.2806830054878287 17.5897939927723819   T   T   T
  5.4109881185959923  1.2807228201039365 17.6066594296435213   T   T   T
  9.0278726593339886  1.2719100009300344 17.6131717505347183   T   T   T
  1.7983678971447423  3.8223096786886899 17.5843009411601088   T   T   T
  5.4113811981716564  3.8200416027041175 17.6031219653647959   T   T   T
  9.0288547017926692  3.8325787480651163 17.6118834611369408   T   T   T
  0.0197787322823654  0.0009170676242235 18.7700839387136611   T   T   T
  3.5958124551574819  5.1026740335839111 18.7124941350571490   T   T   T
  7.2068642414853237  5.1024170053040683 18.7702466523438183   T   T   T
 10.8270604414686513  2.5529730459993987 18.7738020230598224   T   T   T
  3.5873263791293715  2.5492190770632686 18.8653473117976027   T   T   T
  7.2319999706472231  2.5514316006656186 18.7720651808866883   T   T   T
  4.4170161953488547  1.9946050451474842 21.5842503017513891   T   T   T
  3.6382350487626383  2.6401209943863231 20.8599885752624523   T   T   T
  4.3927552103995753  2.1647076684031141 22.6709909013871425   T   T   T
  5.1273462821440496  1.2729481660301889 21.1430071757594717   T   T   T
