H2O_Ag111
 1.0000000000000000
     8.6762002051589384    0.0000000000000000    0.0000000000000000
     4.3381001025794710    7.5138097859873962    0.0000000000000000
     0.0000000000000000    0.0000000000000000   37.0840878029567094
 Ag  O   H  
  36   1   2
Selective dynamics
Cartesian
  0.0000000000000000  0.0000000000000000 14.9999999999999982   F   F   F
  2.8920667350529787  0.0000000000000000 14.9999999999999982   F   F   F
  5.7841334701059575  0.0000000000000000 14.9999999999999982   F   F   F
  1.4460333675264903  2.5046032619957987 14.9999999999999982   F   F   F
  4.3381001025794692  2.5046032619957987 14.9999999999999982   F   F   F
  7.2301668376324475  2.5046032619957987 14.9999999999999982   F   F   F
  2.8920667350529805  5.0092065239915975 14.9999999999999982   F   F   F
  5.7841334701059592  5.0092065239915975 14.9999999999999982   F   F   F
  8.6762002051589384  5.0092065239915975 14.9999999999999982   F   F   F
  1.4460333675264898  0.8348677539985995 17.3613626009855686   F   F   F
  4.3381001025794683  0.8348677539985995 17.3613626009855686   F   F   F
  7.2301668376324484  0.8348677539985995 17.3613626009855686   F   F   F
  2.8920667350529801  3.3394710159943979 17.3613626009855686   F   F   F
  5.7841334701059592  3.3394710159943979 17.3613626009855686   F   F   F
  8.6762002051589384  3.3394710159943979 17.3613626009855686   F   F   F
  4.3381001025794710  5.8440742779901944 17.3613626009855686   F   F   F
  7.2301668376324493  5.8440742779901944 17.3613626009855686   F   F   F
 10.1222335726854276  5.8440742779901944 17.3613626009855686   F   F   F
  8.6779677113833742  1.6703345968950507 19.7727623311003740   T   T   T
  2.8905800473666563  1.6702863989558472 19.7719740318973436   T   T   T
  5.7842599707671090  1.6691752326884353 19.7662063740663854   T   T   T
 10.1225060096726445  4.1730914372643033 19.7711670815171168   T   T   T
  4.3379173827327806  4.1743204356171866 19.7675227487659804   T   T   T
  7.2301473209595004  4.1742475965078141 19.7676253161138114   T   T   T
 11.5676369848431353  6.6790665142577286 19.7665385372033562   T   T   T
  5.7841626968591271  6.6791031098514146 19.7673180390032002   T   T   T
  8.6771766494697218  6.6792319529335487 19.7660948328269974   T   T   T
  4.3364548806574303  7.5104313902381454 22.1823021949960015   T   T   T
  7.2331307531058942  7.5089561199049246 22.1795244766975550   T   T   T
  5.7839219349401318  0.0020809740355486 22.1906565903259541   T   T   T
 10.1216487915043896  2.5056324117305957 22.1918129442287224   T   T   T
  4.3404048988601449  2.5042419652635490 22.1841671963607752   T   T   T
  7.2285766281668247  2.5043314697535446 22.1860357743867738   T   T   T
  2.8932104447253137  5.0098332445052964 22.1863975243685623   T   T   T
  5.7836319852366902  5.0112620260067864 22.1901308218440647   T   T   T
  8.6748485163888738  5.0112277474167461 22.1877196139488966   T   T   T
  1.8702204385080519  1.5758107558334431 25.2988436827373349   T   T   T
  1.4874668759710081  0.7611557670712120 24.9211998400786712   T   T   T
  2.7795159015955297  1.5867768902664396 24.9445313131486550   T   T   T
