C2H6_Ir110
 1.0000000000000000
    11.5199999999999996    0.0000000000000000    0.0000000000000000
     0.0000000000000000    5.4305800795126853    0.0000000000000000
     0.0000000000000000    0.0000000000000000   34.0729350596345171
 Ir  C   H  
  24   2   6
Selective dynamics
Cartesian
  1.9199999999999999  1.3576450198781711 15.0000000000000018   F   F   F
  5.7599999999999989  1.3576450198781711 15.0000000000000018   F   F   F
  9.5999999999999996  1.3576450198781711 15.0000000000000018   F   F   F
  1.9199999999999999  4.0729350596345135 15.0000000000000018   F   F   F
  5.7599999999999989  4.0729350596345135 15.0000000000000018   F   F   F
  9.5999999999999996  4.0729350596345135 15.0000000000000018   F   F   F
  0.0000000000000000  0.0000000000000000 16.3576450198781735   F   F   F
  3.8399999999999999  0.0000000000000000 16.3576450198781735   F   F   F
  7.6799999999999997  0.0000000000000000 16.3576450198781735   F   F   F
  0.0000000000000000  2.7152900397563422 16.3576450198781735   F   F   F
  3.8399999999999999  2.7152900397563422 16.3576450198781735   F   F   F
  7.6799999999999997  2.7152900397563422 16.3576450198781735   F   F   F
  1.9145703768662594  1.3599204012424400 17.7813291180557513   T   T   T
  5.7650423023933435  1.3589237261756892 17.7858466284263734   T   T   T
  9.6017131631331214  1.3566205600659136 17.7796922523828904   T   T   T
  1.9127092386547033  4.0710335515594780 17.7801190875925066   T   T   T
  5.7652787499817570  4.0721440865758920 17.7893166727344401   T   T   T
  9.6020788741022827  4.0739753057877914 17.7796769554915279   T   T   T
  0.0009117065837558  0.0002154328355422 19.0065069804365301   T   T   T
  3.8358906286719683  5.4277135190401991 18.9845709259066027   T   T   T
  7.6826453791581084  5.4296601649507883 19.0029771176112448   T   T   T
  0.0006080253474769  2.7144613103046278 19.0027860746780384   T   T   T
  3.8343127202248719  2.7174563870609583 19.0020107399641418   T   T   T
  7.6821313501457258  2.7154736214735240 19.0008290264419379   T   T   T
  4.9025293859497534  4.0961170347247355 22.4200215483224916   T   T   T
  4.3769035237064635  2.7126257981788933 22.0551618505234011   T   T   T
  4.1903106140845381  4.6428658250394221 23.0521700941887460   T   T   T
  5.8630080213975724  4.0295424174653407 22.9485398931878528   T   T   T
  5.0732892341266549  4.7119783818749035 21.5211163903094267   T   T   T
  4.1955104678165025  2.0803730607887791 22.9394844174717001   T   T   T
  5.0999921516253250  2.1600611372821277 21.4323853348262219   T   T   T
  3.4048175964797447  2.7719495224499915 21.5241963648855865   T   T   T
