CH3OCH3_Ir110
 1.0000000000000000
    11.5199999999999996    0.0000000000000000    0.0000000000000000
     0.0000000000000000    5.4305800795126853    0.0000000000000000
     0.0000000000000000    0.0000000000000000   34.0729350596345171
 Ir  C   O   H  
  24   2   1   6
Selective dynamics
Cartesian
  1.9199999999999999  1.3576450198781711 15.0000000000000018   F   F   F
  5.7599999999999989  1.3576450198781711 15.0000000000000018   F   F   F
  9.5999999999999996  1.3576450198781711 15.0000000000000018   F   F   F
  1.9199999999999999  4.0729350596345135 15.0000000000000018   F   F   F
  5.7599999999999989  4.0729350596345135 15.0000000000000018   F   F   F
  9.5999999999999996  4.0729350596345135 15.0000000000000018   F   F   F
  0.0000000000000000  0.0000000000000000 16.3576450198781735   F   F   F
  3.8399999999999999  0.0000000000000000 16.3576450198781735   F   F   F
  7.6799999999999997  0.0000000000000000 16.3576450198781735   F   F   F
  0.0000000000000000  2.7152900397563422 16.3576450198781735   F   F   F
  3.8399999999999999  2.7152900397563422 16.3576450198781735   F   F   F
  7.6799999999999997  2.7152900397563422 16.3576450198781735   F   F   F
  1.9106783247015002  1.3577933757311873 17.7860258039730255   T   T   T
  5.7640826559359022  1.3625588178774921 17.7783448093811387   T   T   T
  9.5949356430537538  1.3553333990421845 17.7741860303326185   T   T   T
  1.9089025698763533  4.0766410584975974 17.7784230519987574   T   T   T
  5.7618223676752134  4.0719291871914978 17.7900102290231779   T   T   T
  9.5967902648918191  4.0791091920831883 17.7735579837428830   T   T   T
 11.5086691770988665  0.0052514100493804 19.0077689436882196   T   T   T
  3.8411793698002037  0.0007163947188397 18.9622504968130521   T   T   T
  7.6786791930813365  0.0022316376863784 19.0105484346778049   T   T   T
 11.5095929407674582  2.7169094810858310 18.9958531096970518   T   T   T
  3.8354611441059490  2.7193148240001728 19.0177264944735214   T   T   T
  7.6797819552064546  2.7171768872123581 18.9957925827155485   T   T   T
  2.4798876330133255  3.3671758342886133 21.8061323636341591   T   T   T
  4.8572108261283224  2.9815226176389533 21.9239716626812644   T   T   T
  3.6174404012753096  2.6805424508439248 21.2333260256044341   T   T   T
  2.3587720972111756  3.0449601363294412 22.8496501189776460   T   T   T
  2.6197544201022107  4.4597805429264641 21.7563432788473108   T   T   T
  1.5975807829230126  3.0750272889174037 21.2157527884951413   T   T   T
  5.0918148991202044  4.0522329302032380 21.8341105800988800   T   T   T
  5.6437427281920982  2.3805237857367878 21.4534481175658769   T   T   T
  4.7479027492571007  2.7049229603466114 22.9817065863977348   T   T   T
