NO_Rh110
 1.0000000000000000
    11.4089999999999989    0.0000000000000000    0.0000000000000000
     0.0000000000000000    5.3782541777048811    0.0000000000000000
     0.0000000000000000    0.0000000000000000   34.0336906332786597
 Rh  N   O  
  24   1   1
Selective dynamics
Cartesian
  1.9014999999999997  1.3445635444262203 15.0000000000000000   F   F   F
  5.7044999999999995  1.3445635444262203 15.0000000000000000   F   F   F
  9.5074999999999985  1.3445635444262203 15.0000000000000000   F   F   F
  1.9014999999999997  4.0336906332786606 15.0000000000000000   F   F   F
  5.7044999999999995  4.0336906332786606 15.0000000000000000   F   F   F
  9.5074999999999985  4.0336906332786606 15.0000000000000000   F   F   F
  0.0000000000000000  0.0000000000000000 16.3445635444262187   F   F   F
  3.8029999999999995  0.0000000000000000 16.3445635444262187   F   F   F
  7.6059999999999990  0.0000000000000000 16.3445635444262187   F   F   F
  0.0000000000000000  2.6891270888524406 16.3445635444262187   F   F   F
  3.8029999999999995  2.6891270888524406 16.3445635444262187   F   F   F
  7.6059999999999990  2.6891270888524406 16.3445635444262187   F   F   F
  1.8673318391239107  1.3441939198685824 17.6590891168279143   T   T   T
  5.7407769768661812  1.3442032989520472 17.6626232968698389   T   T   T
  9.5084350157740509  1.3446016794394962 17.7346238855632699   T   T   T
  1.8982819063927521  4.0332435218231701 17.7388292130578300   T   T   T
  5.7051247670482708  4.0332911870551351 17.7486388466270135   T   T   T
  9.5091274364638370  4.0336843698306435 17.7276762498558469   T   T   T
  0.0065572935466357  5.3749560309278692 18.9944459689328831   T   T   T
  3.8026760008005818  5.3749331324252791 19.0290860109085642   T   T   T
  7.6023946960226709  5.3749925045820968 18.9932289587341074   T   T   T
  0.0065305389311426  2.6923800926357147 18.9945034918871443   T   T   T
  3.8027424667251166  2.6905261420412621 19.0294229437247964   T   T   T
  7.6023180412479023  2.6925119492976628 18.9933685843056814   T   T   T
  3.9198319288229815  1.3420235435298691 20.3880375483612433   T   T   T
  4.0696651456287398  1.3402922940372806 21.5902753753646621   T   T   T
