CH3OCH3_Au100
 1.0000000000000000
    11.5399826689644573    0.0000000000000000    0.0000000000000000
     0.0000000000000000   11.5399826689644573    0.0000000000000000
     0.0000000000000000    0.0000000000000000   36.1199999999999974
 Au  C   O   H  
  64   2   1   6
Selective dynamics
Cartesian
  1.4424978336205572  1.4424978336205572 14.9999999999999982   F   F   F
  4.3274935008616717  1.4424978336205572 14.9999999999999982   F   F   F
  7.2124891681027856  1.4424978336205572 14.9999999999999982   F   F   F
 10.0974848353439004  1.4424978336205572 14.9999999999999982   F   F   F
  1.4424978336205572  4.3274935008616717 14.9999999999999982   F   F   F
  4.3274935008616717  4.3274935008616717 14.9999999999999982   F   F   F
  7.2124891681027856  4.3274935008616717 14.9999999999999982   F   F   F
 10.0974848353439004  4.3274935008616717 14.9999999999999982   F   F   F
  1.4424978336205572  7.2124891681027856 14.9999999999999982   F   F   F
  4.3274935008616717  7.2124891681027856 14.9999999999999982   F   F   F
  7.2124891681027856  7.2124891681027856 14.9999999999999982   F   F   F
 10.0974848353439004  7.2124891681027856 14.9999999999999982   F   F   F
  1.4424978336205572 10.0974848353439004 14.9999999999999982   F   F   F
  4.3274935008616717 10.0974848353439004 14.9999999999999982   F   F   F
  7.2124891681027856 10.0974848353439004 14.9999999999999982   F   F   F
 10.0974848353439004 10.0974848353439004 14.9999999999999982   F   F   F
  0.0000000000000000  0.0000000000000000 17.0399999999999991   F   F   F
  2.8849956672411143  0.0000000000000000 17.0399999999999991   F   F   F
  5.7699913344822287  0.0000000000000000 17.0399999999999991   F   F   F
  8.6549870017233435  0.0000000000000000 17.0399999999999991   F   F   F
  0.0000000000000000  2.8849956672411143 17.0399999999999991   F   F   F
  2.8849956672411143  2.8849956672411143 17.0399999999999991   F   F   F
  5.7699913344822287  2.8849956672411143 17.0399999999999991   F   F   F
  8.6549870017233435  2.8849956672411143 17.0399999999999991   F   F   F
  0.0000000000000000  5.7699913344822287 17.0399999999999991   F   F   F
  2.8849956672411143  5.7699913344822287 17.0399999999999991   F   F   F
  5.7699913344822287  5.7699913344822287 17.0399999999999991   F   F   F
  8.6549870017233435  5.7699913344822287 17.0399999999999991   F   F   F
  0.0000000000000000  8.6549870017233435 17.0399999999999991   F   F   F
  2.8849956672411143  8.6549870017233435 17.0399999999999991   F   F   F
  5.7699913344822287  8.6549870017233435 17.0399999999999991   F   F   F
  8.6549870017233435  8.6549870017233435 17.0399999999999991   F   F   F
  1.4425536978073195  1.4425044256863568 19.1837836980565122   T   T   T
  4.3266316609728808  1.4432452378289837 19.1824716077989876   T   T   T
  7.2134364464512322  1.4432046740034146 19.1824276887198124   T   T   T
 10.0973090783153179  1.4426750395591772 19.1840698651864621   T   T   T
  1.4421293921384255  4.3262544423554594 19.1808501637955331   T   T   T
  4.3288530351267411  4.3284498053216049 19.1861218674632141   T   T   T
  7.2108759276919470  4.3286781709636708 19.1860596559069414   T   T   T
 10.0971605153408568  4.3266435275634558 19.1818104580933415   T   T   T
  1.4423062182473072  7.2137253353028035 19.1810587269040589   T   T   T
  4.3291297384634788  7.2106859289520218 19.1874336371767775   T   T   T
  7.2108696175284033  7.2109813610583036 19.1868785517410885   T   T   T
 10.0969738646576470  7.2133159304827039 19.1822486651673252   T   T   T
  1.4425529041297460 10.0974887721625333 19.1839329623954313   T   T   T
  4.3265276229189116 10.0969369328082106 19.1824980826063083   T   T   T
  7.2135066090946287 10.0970827768858769 19.1824293288003638   T   T   T
 10.0974783276982230 10.0973832900040481 19.1840913433179345   T   T   T
  0.0000390137910487  0.0000809012370303 21.3073850267684897   T   T   T
  2.8851090297326842  0.0000125953509961 21.3072381605786454   T   T   T
  5.7699035153770843  0.0007859159528764 21.3081325761715092   T   T   T
  8.6547398728995564  0.0001336274310948 21.3072060371293617   T   T   T
 11.5398604870497170  2.8854765327392693 21.3071404594811469   T   T   T
  2.8856296199619562  2.8868296590170304 21.3075314475243793   T   T   T
  5.7699346730805567  2.8772409719868954 21.3026944262694897   T   T   T
  8.6537571665254216  2.8868471388348493 21.3086022594474827   T   T   T
 11.5395533795746577  5.7702436821342022 21.3091737485287389   T   T   T
  2.8756978502309067  5.7703075809114175 21.3003749478041868   T   T   T
  5.7705728059902093  5.7675126869604370 21.2962977844804797   T   T   T
  8.6619124412835635  5.7700047649675286 21.3036248548209457   T   T   T
  0.0003279092554914  8.6545517022683889 21.3072618188566203   T   T   T
  2.8866189566831904  8.6533703232967891 21.3078320277891535   T   T   T
  5.7702175280472758  8.6631898834024597 21.3018117033316017   T   T   T
  8.6530443893937665  8.6531953385938678 21.3085996938724591   T   T   T
  6.7852608081995847  5.5519071090050094 25.0772329511326397   T   T   T
  4.4216616707426732  5.6284224772029772 25.0640138452920453   T   T   T
  5.6174933171656249  5.8967353745521152 24.3306445826803071   T   T   T
  6.8223928886831802  6.1167137701779222 26.0260927667601045   T   T   T
  6.7963677835327774  4.4738803360510202 25.3176013611379780   T   T   T
  7.6619393769429989  5.8028309336452830 24.4688246340914759   T   T   T
  4.4096308246477367  6.2037654552964474 26.0069792671388917   T   T   T
  4.3395898391527830  4.5552006826819778 25.3141096159696026   T   T   T
  3.5688697724831604  5.9259004734523799 24.4423852109239590   T   T   T
