CH3CH2OH_Rh111
 1.0000000000000000
    10.7565083554097622    0.0000000000000000    0.0000000000000000
     0.0000000000000000    9.3154094918044255    0.0000000000000000
     0.0000000000000000    0.0000000000000000   36.5869892211844387
 Rh  C   O   H  
  64   2   1   6
Selective dynamics
Cartesian
  0.0000000000000000  0.0000000000000000 15.0000000000000000   F   F   F
  2.6891270888524406  0.0000000000000000 15.0000000000000000   F   F   F
  5.3782541777048811  0.0000000000000000 15.0000000000000000   F   F   F
  8.0673812665573212  0.0000000000000000 15.0000000000000000   F   F   F
  1.3445635444262203  2.3288523729511064 15.0000000000000000   F   F   F
  4.0336906332786606  2.3288523729511064 15.0000000000000000   F   F   F
  6.7228177221311016  2.3288523729511064 15.0000000000000000   F   F   F
  9.4119448109835417  2.3288523729511064 15.0000000000000000   F   F   F
  0.0000000000000000  4.6577047459022127 15.0000000000000000   F   F   F
  2.6891270888524406  4.6577047459022127 15.0000000000000000   F   F   F
  5.3782541777048811  4.6577047459022127 15.0000000000000000   F   F   F
  8.0673812665573212  4.6577047459022127 15.0000000000000000   F   F   F
  1.3445635444262203  6.9865571188533195 15.0000000000000000   F   F   F
  4.0336906332786606  6.9865571188533195 15.0000000000000000   F   F   F
  6.7228177221311016  6.9865571188533195 15.0000000000000000   F   F   F
  9.4119448109835417  6.9865571188533195 15.0000000000000000   F   F   F
  1.3445635444262203  0.7762841243170354 17.1956630737281486   F   F   F
  4.0336906332786606  0.7762841243170354 17.1956630737281486   F   F   F
  6.7228177221311016  0.7762841243170354 17.1956630737281486   F   F   F
  9.4119448109835417  0.7762841243170354 17.1956630737281486   F   F   F
  0.0000000000000000  3.1051364972681417 17.1956630737281486   F   F   F
  2.6891270888524406  3.1051364972681417 17.1956630737281486   F   F   F
  5.3782541777048811  3.1051364972681417 17.1956630737281486   F   F   F
  8.0673812665573212  3.1051364972681417 17.1956630737281486   F   F   F
  1.3445635444262203  5.4339888702192489 17.1956630737281486   F   F   F
  4.0336906332786606  5.4339888702192489 17.1956630737281486   F   F   F
  6.7228177221311016  5.4339888702192489 17.1956630737281486   F   F   F
  9.4119448109835417  5.4339888702192489 17.1956630737281486   F   F   F
  0.0000000000000000  7.7628412431703548 17.1956630737281486   F   F   F
  2.6891270888524406  7.7628412431703548 17.1956630737281486   F   F   F
  5.3782541777048811  7.7628412431703548 17.1956630737281486   F   F   F
  8.0673812665573212  7.7628412431703548 17.1956630737281486   F   F   F
 10.7560835172673830  1.5554034381494586 19.3998270881166128   T   T   T
  2.6902081292016380  1.5541094943489604 19.4006014713466790   T   T   T
  5.3766145712657476  1.5557217821379956 19.3999486067947338   T   T   T
  8.0663615903472135  1.5534645918674679 19.4038899228089612   T   T   T
  1.3520129259658262  3.8875667043512458 19.4305779780241643   T   T   T
  4.0212915084256320  3.8886901899406987 19.4387423103361421   T   T   T
  6.7185057758374667  3.8808808103968198 19.4029404175337135   T   T   T
  9.4109087075251168  3.8792105826619094 19.3958464288479071   T   T   T
 10.7564848975329159  6.2109589884457215 19.4005468191505663   T   T   T
  2.6908783844040109  6.1996076425758320 19.4336414020772033   T   T   T
  5.3775114874278174  6.2092707973418211 19.4053671516903634   T   T   T
  8.0676379492739780  6.2102215506141434 19.4014384254561882   T   T   T
  1.3452714674919131  8.5392389435167377 19.3980931064090854   T   T   T
  4.0322260698392833  8.5387600819467213 19.4002353908651628   T   T   T
  6.7231720455864812  8.5404137587633659 19.4004549512551421   T   T   T
  9.4105732320533324  8.5398669436379961 19.4020477394838124   T   T   T
 10.7545141204442327  9.3112382788716612 21.5883689986030944   T   T   T
  2.6897262877956662  9.3141497084172045 21.5837400141695852   T   T   T
  5.3823065498760885  9.3115636387588587 21.5889509729329312   T   T   T
  8.0686413843961979  9.3145284814959535 21.5902817801230178   T   T   T
  1.3375085130501110  2.3127553952876156 21.5815703319699495   T   T   T
  4.0394359378971307  2.3159897047968703 21.5832428501847140   T   T   T
  6.7221104792191690  2.3288138587904967 21.5896262835763189   T   T   T
  9.4132659184060667  2.3304391569262934 21.5885391413656755   T   T   T
 10.7358381142965715  4.6584329468820576 21.5786961897689515   T   T   T
  2.7054545996042547  4.6644387897824462 21.6715992637699095   T   T   T
  5.3941260535244737  4.6598549133393945 21.5836882441790294   T   T   T
  8.0708128005958599  4.6568521454996858 21.5876588845461548   T   T   T
  1.3391428398728868  6.9951384465107864 21.5744316924014612   T   T   T
  4.0450600885853509  7.0001409886516841 21.5785619425855160   T   T   T
  6.7226535973775370  6.9864444735518223 21.5887421059867393   T   T   T
  9.4136941166025014  6.9839615495494218 21.5918478122898350   T   T   T
  4.4695153929823048  5.1229503186189440 25.0364471211942892   T   T   T
  3.0394578491451587  5.5148861015050068 24.7999319065518229   T   T   T
  2.4139601874234624  4.5709614924911053 23.8780765096208576   T   T   T
  1.4441508930149796  4.7489027255919929 23.8379284816542985   T   T   T
  2.4387105609427864  5.4902221139516492 25.7229598099923287   T   T   T
  2.9450514733431485  6.5314124393891362 24.3719631482200647   T   T   T
  4.5335906550583935  4.1237087214223189 25.4802644470307698   T   T   T
  5.0429522154597750  5.1207806454908367 24.0964039524993616   T   T   T
  4.9476664465194444  5.8409368248031326 25.7145681643995658   T   T   T
