CH3OCH3_Cu100
 1.0000000000000000
    10.2106219203337467    0.0000000000000000    0.0000000000000000
     0.0000000000000000   10.2106219203337467    0.0000000000000000
     0.0000000000000000    0.0000000000000000   35.4149999999999991
 Cu  C   O   H  
  64   2   1   6
Selective dynamics
Cartesian
  1.2763277400417183  1.2763277400417183 15.0000000000000000   F   F   F
  3.8289832201251550  1.2763277400417183 15.0000000000000000   F   F   F
  6.3816387002085921  1.2763277400417183 15.0000000000000000   F   F   F
  8.9342941802920279  1.2763277400417183 15.0000000000000000   F   F   F
  1.2763277400417183  3.8289832201251550 15.0000000000000000   F   F   F
  3.8289832201251550  3.8289832201251550 15.0000000000000000   F   F   F
  6.3816387002085921  3.8289832201251550 15.0000000000000000   F   F   F
  8.9342941802920279  3.8289832201251550 15.0000000000000000   F   F   F
  1.2763277400417183  6.3816387002085921 15.0000000000000000   F   F   F
  3.8289832201251550  6.3816387002085921 15.0000000000000000   F   F   F
  6.3816387002085921  6.3816387002085921 15.0000000000000000   F   F   F
  8.9342941802920279  6.3816387002085921 15.0000000000000000   F   F   F
  1.2763277400417183  8.9342941802920279 15.0000000000000000   F   F   F
  3.8289832201251550  8.9342941802920279 15.0000000000000000   F   F   F
  6.3816387002085921  8.9342941802920279 15.0000000000000000   F   F   F
  8.9342941802920279  8.9342941802920279 15.0000000000000000   F   F   F
  0.0000000000000000  0.0000000000000000 16.8049999999999997   F   F   F
  2.5526554800834367  0.0000000000000000 16.8049999999999997   F   F   F
  5.1053109601668734  0.0000000000000000 16.8049999999999997   F   F   F
  7.6579664402503100  0.0000000000000000 16.8049999999999997   F   F   F
  0.0000000000000000  2.5526554800834367 16.8049999999999997   F   F   F
  2.5526554800834367  2.5526554800834367 16.8049999999999997   F   F   F
  5.1053109601668734  2.5526554800834367 16.8049999999999997   F   F   F
  7.6579664402503100  2.5526554800834367 16.8049999999999997   F   F   F
  0.0000000000000000  5.1053109601668734 16.8049999999999997   F   F   F
  2.5526554800834367  5.1053109601668734 16.8049999999999997   F   F   F
  5.1053109601668734  5.1053109601668734 16.8049999999999997   F   F   F
  7.6579664402503100  5.1053109601668734 16.8049999999999997   F   F   F
  0.0000000000000000  7.6579664402503100 16.8049999999999997   F   F   F
  2.5526554800834367  7.6579664402503100 16.8049999999999997   F   F   F
  5.1053109601668734  7.6579664402503100 16.8049999999999997   F   F   F
  7.6579664402503100  7.6579664402503100 16.8049999999999997   F   F   F
  1.2757732531222270  1.2741271989669323 18.6330972143765372   T   T   T
  3.8360687428312858  1.2865954345819688 18.6508423104433305   T   T   T
  6.3740610261366655  1.2868694918331585 18.6512098016004941   T   T   T
  8.9334423929165592  1.2743508794856135 18.6341411776102319   T   T   T
  1.2760441820517361  3.8315090668715848 18.6333292225200502   T   T   T
  3.8362290014473035  3.8190895143266474 18.6512360762666809   T   T   T
  6.3736888213777654  3.8189452903901744 18.6514779295428994   T   T   T
  8.9333863883121403  3.8311245049903686 18.6341654912234809   T   T   T
  1.2754527436843033  6.3831859036600074 18.6379928213082771   T   T   T
  3.8252224470165386  6.3830514946941959 18.6307110272306247   T   T   T
  6.3858334137554813  6.3828190713871384 18.6306589154260891   T   T   T
  8.9352516743289563  6.3826490488740113 18.6380648423198423   T   T   T
  1.2749478260770886  8.9323771211452510 18.6375129607798016   T   T   T
  3.8247609289306999  8.9317352274743538 18.6298820956762974   T   T   T
  6.3864560459562112  8.9323234340978122 18.6298689802059663   T   T   T
  8.9354437817135572  8.9334456501784398 18.6379381836814062   T   T   T
 10.2104886037576019  0.0012276170160643 20.4163685162827697   T   T   T
  2.5528190849268886 10.2089539087953529 20.4102809695863741   T   T   T
  5.1055930152803972 10.1927645471944253 20.3921337148160049   T   T   T
  7.6567803588409999 10.2104271009083423 20.4142036505468951   T   T   T
 10.2095685020219875  2.5525977516260943 20.4138489529052620   T   T   T
  2.5338790802657511  2.5527844358948180 20.4101522477366188   T   T   T
  5.1031165583387113  2.5527122320701485 20.4887455458977321   T   T   T
  7.6726622515973526  2.5530508490040034 20.4139394746589673   T   T   T
 10.2105145979773759  5.1040488017048942 20.4163717229051720   T   T   T
  2.5532516721189129  5.1066686706936499 20.4123473371193427   T   T   T
  5.1055166006075794  5.1211227209956887 20.3964182122250257   T   T   T
  7.6567481499825325  5.1059316597017927 20.4146304428137526   T   T   T
  0.0003686971410258  7.6579454943131076 20.4179222595022551   T   T   T
  2.5555394401704929  7.6579327563308741 20.4201330687012579   T   T   T
  5.1057868190553268  7.6573702904323770 20.4136111968546317   T   T   T
  7.6566043069749750  7.6585017264340731 20.4175614143256823   T   T   T
  4.8920867524813882  1.3145550577450578 23.9366156756412920   T   T   T
  4.9067456695267806  3.6796442315716380 24.0015343420514995   T   T   T
  4.9612143391727379  2.5188108425501436 23.1664470913211780   T   T   T
  3.9564214419810537  1.2704712713509512 24.5188643127772785   T   T   T
  4.9178910326008749  0.4668360867368176 23.2423774776419165   T   T   T
  5.7427436032083525  1.2399773634164526 24.6361732481054219   T   T   T
  5.0199616891310628  4.5626310016046059 23.3638490365913292   T   T   T
  5.7231263542654558  3.6676415981251438 24.7432770587945505   T   T   T
  3.9465244836521269  3.7385816201306130 24.5426157687082025   T   T   T
