CH3_Ir111
 1.0000000000000000
    10.8611601590253706    0.0000000000000000    0.0000000000000000
     0.0000000000000000    9.4060406122874021    0.0000000000000000
     0.0000000000000000    0.0000000000000000   36.6510751010644924
 Ir  C   H  
  64   1   3
Selective dynamics
Cartesian
  0.0000000000000000  0.0000000000000000 15.0000000000000018   F   F   F
  2.7152900397563422  0.0000000000000000 15.0000000000000018   F   F   F
  5.4305800795126844  0.0000000000000000 15.0000000000000018   F   F   F
  8.1458701192690270  0.0000000000000000 15.0000000000000018   F   F   F
  1.3576450198781711  2.3515101530718505 15.0000000000000018   F   F   F
  4.0729350596345135  2.3515101530718505 15.0000000000000018   F   F   F
  6.7882250993908571  2.3515101530718505 15.0000000000000018   F   F   F
  9.5035151391471988  2.3515101530718505 15.0000000000000018   F   F   F
  0.0000000000000000  4.7030203061437010 15.0000000000000018   F   F   F
  2.7152900397563422  4.7030203061437010 15.0000000000000018   F   F   F
  5.4305800795126844  4.7030203061437010 15.0000000000000018   F   F   F
  8.1458701192690270  4.7030203061437010 15.0000000000000018   F   F   F
  1.3576450198781711  7.0545304592155516 15.0000000000000018   F   F   F
  4.0729350596345135  7.0545304592155516 15.0000000000000018   F   F   F
  6.7882250993908571  7.0545304592155516 15.0000000000000018   F   F   F
  9.5035151391471988  7.0545304592155516 15.0000000000000018   F   F   F
  1.3576450198781711  0.7838367176906168 17.2170250336881665   F   F   F
  4.0729350596345135  0.7838367176906168 17.2170250336881665   F   F   F
  6.7882250993908571  0.7838367176906168 17.2170250336881665   F   F   F
  9.5035151391471988  0.7838367176906168 17.2170250336881665   F   F   F
  0.0000000000000000  3.1353468707624672 17.2170250336881665   F   F   F
  2.7152900397563422  3.1353468707624672 17.2170250336881665   F   F   F
  5.4305800795126844  3.1353468707624672 17.2170250336881665   F   F   F
  8.1458701192690270  3.1353468707624672 17.2170250336881665   F   F   F
  1.3576450198781711  5.4868570238343182 17.2170250336881665   F   F   F
  4.0729350596345135  5.4868570238343182 17.2170250336881665   F   F   F
  6.7882250993908571  5.4868570238343182 17.2170250336881665   F   F   F
  9.5035151391471988  5.4868570238343182 17.2170250336881665   F   F   F
  0.0000000000000000  7.8383671769061687 17.2170250336881665   F   F   F
  2.7152900397563422  7.8383671769061687 17.2170250336881665   F   F   F
  5.4305800795126844  7.8383671769061687 17.2170250336881665   F   F   F
  8.1458701192690270  7.8383671769061687 17.2170250336881665   F   F   F
 10.8610884574531461  1.5678567789935753 19.4433809635311796   T   T   T
  2.7164506930939267  1.5703774237739270 19.4446157480973518   T   T   T
  5.4304755168442496  1.5697038087122879 19.4496452806976237   T   T   T
  8.1445206450752234  1.5701665739015938 19.4442600691432226   T   T   T
  1.3599190313172433  3.9190563175485034 19.4442140247525401   T   T   T
  4.0791979720666207  3.9236251306714411 19.4636856573497425   T   T   T
  6.7816404147333884  3.9234306784729762 19.4635642289817987   T   T   T
  9.5008172886091682  3.9189433847034576 19.4446193027064460   T   T   T
 10.8609581095217482  6.2709531895494139 19.4428607257252857   T   T   T
  2.7159395619311382  6.2698602793586886 19.4508448462143271   T   T   T
  5.4305289495558799  6.2628701786034444 19.4634206567233221   T   T   T
  8.1449218437583966  6.2700561561250652 19.4508395523639379   T   T   T
  1.3565693757981112  8.6234530625496291 19.4428068536674559   T   T   T
  4.0729999611466523  8.6190787466088103 19.4437341580403888   T   T   T
  6.7881223038288239  8.6191344582660978 19.4433541542092527   T   T   T
  9.5043712497648301  8.6234601618657258 19.4428943933713008   T   T   T
 10.8609606730681900  9.4056554094509313 21.6609171244770415   T   T   T
  2.7152675591624686  0.0003823066465618 21.6589427376676156   T   T   T
  5.4303058974831133  9.4054194596497833 21.6505318655955712   T   T   T
  8.1457066612022917  0.0001290729753531 21.6584833078789991   T   T   T
  1.3595254815175770  2.3513532543442239 21.6551802324969209   T   T   T
  4.0649952710016057  2.3478958530673006 21.6412197235398445   T   T   T
  6.7952835360527164  2.3483254593899727 21.6408654067893949   T   T   T
  9.5010866809272496  2.3511607263495016 21.6551566498160177   T   T   T
 10.8607099748184552  4.7030405811892324 21.6588853872118712   T   T   T
  2.7074136440950967  4.7003819233513573 21.6409289910727907   T   T   T
  5.4304905184199459  4.7018630952029250 21.7781740273403877   T   T   T
  8.1534485798929559  4.7004641413064565 21.6414428385305939   T   T   T
  1.3585657060769423  7.0542323630910833 21.6570649338616548   T   T   T
  4.0704345091131060  7.0625979981742422 21.6402803795921379   T   T   T
  6.7898698031600393  7.0619404577336855 21.6403389285664218   T   T   T
  9.5019854847843703  7.0543451685334260 21.6572458000564936   T   T   T
  5.4209793990510233  4.6868129155372271 23.8769591443017148   T   T   T
  6.3655299280816449  5.1168726625922849 24.2461950135099329   T   T   T
  5.3175215986372013  3.6534577428145032 24.2446044672784566   T   T   T
  4.5741203646379711  5.2930495681737026 24.2356849354127526   T   T   T
