C2H6_Pt100
 1.0000000000000000
    11.0874343290050650    0.0000000000000000    0.0000000000000000
     0.0000000000000000   11.0874343290050650    0.0000000000000000
     0.0000000000000000    0.0000000000000000   35.8800000000000026
 Pt  C   H  
  64   2   6
Selective dynamics
Cartesian
  1.3859292911256331  1.3859292911256331 15.0000000000000018   F   F   F
  4.1577878733768996  1.3859292911256331 15.0000000000000018   F   F   F
  6.9296464556281654  1.3859292911256331 15.0000000000000018   F   F   F
  9.7015050378794339  1.3859292911256331 15.0000000000000018   F   F   F
  1.3859292911256331  4.1577878733768996 15.0000000000000018   F   F   F
  4.1577878733768996  4.1577878733768996 15.0000000000000018   F   F   F
  6.9296464556281654  4.1577878733768996 15.0000000000000018   F   F   F
  9.7015050378794339  4.1577878733768996 15.0000000000000018   F   F   F
  1.3859292911256331  6.9296464556281654 15.0000000000000018   F   F   F
  4.1577878733768996  6.9296464556281654 15.0000000000000018   F   F   F
  6.9296464556281654  6.9296464556281654 15.0000000000000018   F   F   F
  9.7015050378794339  6.9296464556281654 15.0000000000000018   F   F   F
  1.3859292911256331  9.7015050378794339 15.0000000000000018   F   F   F
  4.1577878733768996  9.7015050378794339 15.0000000000000018   F   F   F
  6.9296464556281654  9.7015050378794339 15.0000000000000018   F   F   F
  9.7015050378794339  9.7015050378794339 15.0000000000000018   F   F   F
  0.0000000000000000  0.0000000000000000 16.9600000000000009   F   F   F
  2.7718585822512662  0.0000000000000000 16.9600000000000009   F   F   F
  5.5437171645025325  0.0000000000000000 16.9600000000000009   F   F   F
  8.3155757467537992  0.0000000000000000 16.9600000000000009   F   F   F
  0.0000000000000000  2.7718585822512662 16.9600000000000009   F   F   F
  2.7718585822512662  2.7718585822512662 16.9600000000000009   F   F   F
  5.5437171645025325  2.7718585822512662 16.9600000000000009   F   F   F
  8.3155757467537992  2.7718585822512662 16.9600000000000009   F   F   F
  0.0000000000000000  5.5437171645025325 16.9600000000000009   F   F   F
  2.7718585822512662  5.5437171645025325 16.9600000000000009   F   F   F
  5.5437171645025325  5.5437171645025325 16.9600000000000009   F   F   F
  8.3155757467537992  5.5437171645025325 16.9600000000000009   F   F   F
  0.0000000000000000  8.3155757467537992 16.9600000000000009   F   F   F
  2.7718585822512662  8.3155757467537992 16.9600000000000009   F   F   F
  5.5437171645025325  8.3155757467537992 16.9600000000000009   F   F   F
  8.3155757467537992  8.3155757467537992 16.9600000000000009   F   F   F
  1.3856281275381395  1.3846375431753348 18.9518577618088031   T   T   T
  4.1596422177814096  1.3888062961837728 18.9562152113832454   T   T   T
  6.9292736883434891  1.3877951525682943 18.9547352072097439   T   T   T
  9.7014387228637027  1.3853790506829864 18.9528975283902490   T   T   T
  1.3870694277920930  4.1578770476324882 18.9516877245969084   T   T   T
  4.1622511441796073  4.1581068431426242 18.9619903667045477   T   T   T
  6.9247877775296649  4.1574390229024099 18.9627159947040518   T   T   T
  9.7003215027319278  4.1578268155796021 18.9515555711674288   T   T   T
  1.3861181321856790  6.9301214301598622 18.9528832943915191   T   T   T
  4.1582114094431750  6.9281601960576804 18.9545267734966778   T   T   T
  6.9284472261879548  6.9270710688689752 18.9554355602970865   T   T   T
  9.7019767553777125  6.9308067075549040 18.9520678834470111   T   T   T
  1.3860985149432037  9.7012172331320201 18.9541149179083206   T   T   T
  4.1575123701428076  9.7020925487570207 18.9527342063561157   T   T   T
  6.9298170842689322  9.7011254228048074 18.9528868454478712   T   T   T
  9.7012829729513879  9.7016701561910530 18.9540956519942903   T   T   T
  0.0001138136531679  0.0001780608870501 20.9411321318493187   T   T   T
  2.7754472078545649  0.0038900861742160 20.9402961960917615   T   T   T
  5.5431717993024057 11.0848265306637419 20.9412139610800452   T   T   T
  8.3120559903702596  0.0040320962074689 20.9401935715489600   T   T   T
 11.0870159734674960  2.7722450990957066 20.9398396612253528   T   T   T
  2.7676289174956321  2.7772415676803845 20.9374355012480642   T   T   T
  5.5493374169641445  2.7620621395476750 20.9437540677085998   T   T   T
  8.3179223918414209  2.7754262926624094 20.9387938518875742   T   T   T
  0.0004308845418910  5.5432990812579401 20.9398393446287550   T   T   T
  2.7702733315491912  5.5403157318657019 20.9390083988349716   T   T   T
  5.5391934708568575  5.5552447812817736 20.9411210290087197   T   T   T
  8.3191351118689489  5.5387236401411251 20.9375617802362370   T   T   T
 11.0871830755870668  8.3154440229960560 20.9412223894411227   T   T   T
  2.7752185250443353  8.3116797321039240 20.9403019291606434   T   T   T
  5.5442785521699207  8.3179195674203790 20.9410520214546487   T   T   T
  8.3118669096554001  8.3118023268932699 20.9403298878457633   T   T   T
  5.3977033161574886  3.4623968936194083 24.0658142890088342   T   T   T
  5.7755551429195240  4.9396741863295874 24.1067156130818709   T   T   T
  6.2714780069375475  2.8144926895985503 23.8974020037466595   T   T   T
  4.9216521599242524  3.1417184262493421 25.0045545662646020   T   T   T
  4.6564402836041561  3.2504583131627940 23.2727850332521733   T   T   T
  6.5103155021392016  5.1995109628579765 23.3229522749715059   T   T   T
  6.2542690915055736  5.2031632812914337 25.0617701977785572   T   T   T
  4.9012338333097905  5.5954289046065773 23.9787581050162544   T   T   T
