HCOOH_Cu100
 1.0000000000000000
    10.2106219203337467    0.0000000000000000    0.0000000000000000
     0.0000000000000000   10.2106219203337467    0.0000000000000000
     0.0000000000000000    0.0000000000000000   35.4149999999999991
 Cu  O   C   H  
  64   2   1   2
Selective dynamics
Cartesian
  1.2763277400417183  1.2763277400417183 15.0000000000000000   F   F   F
  3.8289832201251550  1.2763277400417183 15.0000000000000000   F   F   F
  6.3816387002085921  1.2763277400417183 15.0000000000000000   F   F   F
  8.9342941802920279  1.2763277400417183 15.0000000000000000   F   F   F
  1.2763277400417183  3.8289832201251550 15.0000000000000000   F   F   F
  3.8289832201251550  3.8289832201251550 15.0000000000000000   F   F   F
  6.3816387002085921  3.8289832201251550 15.0000000000000000   F   F   F
  8.9342941802920279  3.8289832201251550 15.0000000000000000   F   F   F
  1.2763277400417183  6.3816387002085921 15.0000000000000000   F   F   F
  3.8289832201251550  6.3816387002085921 15.0000000000000000   F   F   F
  6.3816387002085921  6.3816387002085921 15.0000000000000000   F   F   F
  8.9342941802920279  6.3816387002085921 15.0000000000000000   F   F   F
  1.2763277400417183  8.9342941802920279 15.0000000000000000   F   F   F
  3.8289832201251550  8.9342941802920279 15.0000000000000000   F   F   F
  6.3816387002085921  8.9342941802920279 15.0000000000000000   F   F   F
  8.9342941802920279  8.9342941802920279 15.0000000000000000   F   F   F
  0.0000000000000000  0.0000000000000000 16.8049999999999997   F   F   F
  2.5526554800834367  0.0000000000000000 16.8049999999999997   F   F   F
  5.1053109601668734  0.0000000000000000 16.8049999999999997   F   F   F
  7.6579664402503100  0.0000000000000000 16.8049999999999997   F   F   F
  0.0000000000000000  2.5526554800834367 16.8049999999999997   F   F   F
  2.5526554800834367  2.5526554800834367 16.8049999999999997   F   F   F
  5.1053109601668734  2.5526554800834367 16.8049999999999997   F   F   F
  7.6579664402503100  2.5526554800834367 16.8049999999999997   F   F   F
  0.0000000000000000  5.1053109601668734 16.8049999999999997   F   F   F
  2.5526554800834367  5.1053109601668734 16.8049999999999997   F   F   F
  5.1053109601668734  5.1053109601668734 16.8049999999999997   F   F   F
  7.6579664402503100  5.1053109601668734 16.8049999999999997   F   F   F
  0.0000000000000000  7.6579664402503100 16.8049999999999997   F   F   F
  2.5526554800834367  7.6579664402503100 16.8049999999999997   F   F   F
  5.1053109601668734  7.6579664402503100 16.8049999999999997   F   F   F
  7.6579664402503100  7.6579664402503100 16.8049999999999997   F   F   F
  1.2922517150829762  1.2907447463283539 18.6722587950949261   T   T   T
  3.8087068834772175  1.2929995555629483 18.6738565801272820   T   T   T
  6.3781427885888764  1.2727977561470973 18.6326443333693952   T   T   T
  8.9319441355962361  1.2699217296359651 18.6293724171772617   T   T   T
  1.2943576149826999  3.8073181102426679 18.6662910195965992   T   T   T
  3.8082761865905295  3.8092254920687645 18.6741651346815978   T   T   T
  6.3772456769298955  3.8331424241338437 18.6339973063104765   T   T   T
  8.9320447557898124  3.8334179954128156 18.6279678446639423   T   T   T
  1.2724127022212708  6.3761159932446940 18.6303293859352515   T   T   T
  3.8329515090784656  6.3773215523045499 18.6325818152152962   T   T   T
  6.3826211082120841  6.3795947345636161 18.6382786301416097   T   T   T
  8.9366749371306842  6.3779356192977970 18.6381981595006394   T   T   T
  1.2714088564613837  8.9320928343530639 18.6323432115915892   T   T   T
  3.8326686356534880  8.9322584355969781 18.6321320280897424   T   T   T
  6.3832712219725884  8.9316607096689982 18.6346770495911080   T   T   T
  8.9349474503560611  8.9309858095034613 18.6364884950853273   T   T   T
 10.2071646024461788 10.2055852909626559 20.4216785887982297   T   T   T
  2.5518462979583521 10.1728527517187199 20.4075820806674493   T   T   T
  5.1080561627514713 10.2066179856237138 20.4185951674603174   T   T   T
  7.6578657838362352 10.2086252689456938 20.4128287383955147   T   T   T
 10.1610472184762557  2.5492698430323006 20.3999840188616091   T   T   T
  2.5243956904672076  2.5653632382264537 20.5766133903338790   T   T   T
  5.1298357276869222  2.5510655348580804 20.4086441142658863   T   T   T
  7.6504324922001921  2.5518133530527907 20.4220173913360838   T   T   T
  0.0055603031570038  5.0943590049871217 20.4198689579416310   T   T   T
  2.5510422432484408  5.1401155409162707 20.4093303511144519   T   T   T
  5.1042722971360366  5.1044536811319352 20.4241920541744051   T   T   T
  7.6635758909588017  5.1032741467516631 20.4141894601335814   T   T   T
  0.0011960689262224  7.6481363833937106 20.4108700638299929   T   T   T
  2.5524184396720422  7.6516150559900034 20.4210316002371570   T   T   T
  5.1061335024889312  7.6557793853526341 20.4147238359738807   T   T   T
  7.6591029735532876  7.6570265400811062 20.4071252249536990   T   T   T
  0.9257948485978577  3.8840041121983582 23.4794961325351110   T   T   T
  2.5424039710930342  2.4928912757269970 22.6717743780774654   T   T   T
  1.9082837766255853  3.0095586543031341 23.6017750559665700   T   T   T
  0.7791542828393950  4.0544825540562721 22.5009423720391339   T   T   T
  2.1284313361110763  2.7629299632743312 24.6451184546621107   T   T   T
