NO_Pd110
 1.0000000000000000
    11.6699999999999999    0.0000000000000000    0.0000000000000000
     0.0000000000000000    5.5012907576313399    0.0000000000000000
     0.0000000000000000    0.0000000000000000   34.1259680682235071
 Pd  N   O  
  24   1   1
Selective dynamics
Cartesian
  1.9449999999999998  1.3753226894078348 14.9999999999999929   F   F   F
  5.8349999999999991  1.3753226894078348 14.9999999999999929   F   F   F
  9.7249999999999996  1.3753226894078348 14.9999999999999929   F   F   F
  1.9449999999999998  4.1259680682235054 14.9999999999999929   F   F   F
  5.8349999999999991  4.1259680682235054 14.9999999999999929   F   F   F
  9.7249999999999996  4.1259680682235054 14.9999999999999929   F   F   F
  0.0000000000000000  0.0000000000000000 16.3753226894078345   F   F   F
  3.8899999999999997  0.0000000000000000 16.3753226894078345   F   F   F
  7.7799999999999994  0.0000000000000000 16.3753226894078345   F   F   F
  0.0000000000000000  2.7506453788156695 16.3753226894078345   F   F   F
  3.8899999999999997  2.7506453788156695 16.3753226894078345   F   F   F
  7.7799999999999994  2.7506453788156695 16.3753226894078345   F   F   F
  1.9730764802849783  1.3765758786972797 17.8317396184635903   T   T   T
  5.8092269802991146  1.3761043273617948 17.8403657932578952   T   T   T
  9.7299520413915506  1.3752143237534968 17.8204955540049070   T   T   T
  1.9235610267213419  4.1265489430045159 17.7710218796478614   T   T   T
  5.8489208056828437  4.1263081543840165 17.7831212171117272   T   T   T
  9.7300167660052086  4.1256796048616149 17.8236230435200156   T   T   T
  0.0179114602945649  0.0019569959583349 19.1659929844069410   T   T   T
  3.8755820684934226  0.0074722330790870 19.2528660340186164   T   T   T
  7.7750083375848469  0.0013105920431365 19.1583335081266846   T   T   T
  0.0174259505351504  2.7486105364791551 19.1670627515806444   T   T   T
  3.8762428540957523  2.7497512084541658 19.2579125590069076   T   T   T
  7.7749999158118630  2.7484107117317111 19.1592863054092248   T   T   T
  4.0320967637847200  4.1315327740572378 20.6118126615480435   T   T   T
  4.3174851062077737  4.1337341510701684 21.7748946073548098   T   T   T
