C2H6_Pt110
 1.0000000000000000
    15.6799999999999997    0.0000000000000000    0.0000000000000000
     0.0000000000000000   11.0874343290050650    0.0000000000000000
     0.0000000000000000    0.0000000000000000   34.1577878733768969
 Pt  C   H  
  64   2   6
Selective dynamics
Cartesian
  1.9600000000000000  1.3859292911256331 14.9999999999999982   F   F   F
  5.8799999999999999  1.3859292911256331 14.9999999999999982   F   F   F
  9.8000000000000007  1.3859292911256331 14.9999999999999982   F   F   F
 13.7199999999999989  1.3859292911256331 14.9999999999999982   F   F   F
  1.9600000000000000  4.1577878733768996 14.9999999999999982   F   F   F
  5.8799999999999999  4.1577878733768996 14.9999999999999982   F   F   F
  9.8000000000000007  4.1577878733768996 14.9999999999999982   F   F   F
 13.7199999999999989  4.1577878733768996 14.9999999999999982   F   F   F
  1.9600000000000000  6.9296464556281654 14.9999999999999982   F   F   F
  5.8799999999999999  6.9296464556281654 14.9999999999999982   F   F   F
  9.8000000000000007  6.9296464556281654 14.9999999999999982   F   F   F
 13.7199999999999989  6.9296464556281654 14.9999999999999982   F   F   F
  1.9600000000000000  9.7015050378794339 14.9999999999999982   F   F   F
  5.8799999999999999  9.7015050378794339 14.9999999999999982   F   F   F
  9.8000000000000007  9.7015050378794339 14.9999999999999982   F   F   F
 13.7199999999999989  9.7015050378794339 14.9999999999999982   F   F   F
  0.0000000000000000  0.0000000000000000 16.3859292911256311   F   F   F
  3.9199999999999999  0.0000000000000000 16.3859292911256311   F   F   F
  7.8399999999999999  0.0000000000000000 16.3859292911256311   F   F   F
 11.7599999999999998  0.0000000000000000 16.3859292911256311   F   F   F
  0.0000000000000000  2.7718585822512662 16.3859292911256311   F   F   F
  3.9199999999999999  2.7718585822512662 16.3859292911256311   F   F   F
  7.8399999999999999  2.7718585822512662 16.3859292911256311   F   F   F
 11.7599999999999998  2.7718585822512662 16.3859292911256311   F   F   F
  0.0000000000000000  5.5437171645025325 16.3859292911256311   F   F   F
  3.9199999999999999  5.5437171645025325 16.3859292911256311   F   F   F
  7.8399999999999999  5.5437171645025325 16.3859292911256311   F   F   F
 11.7599999999999998  5.5437171645025325 16.3859292911256311   F   F   F
  0.0000000000000000  8.3155757467537992 16.3859292911256311   F   F   F
  3.9199999999999999  8.3155757467537992 16.3859292911256311   F   F   F
  7.8399999999999999  8.3155757467537992 16.3859292911256311   F   F   F
 11.7599999999999998  8.3155757467537992 16.3859292911256311   F   F   F
  1.9568776949129223  1.3853426261285808 17.9004916471013047   T   T   T
  5.8829977721295874  1.3902266148664633 17.9060199345803923   T   T   T
  9.8003986834384467  1.3853085574386659 17.9007839853205013   T   T   T
 13.7203786885194816  1.3863550753086840 17.9013474321372463   T   T   T
  1.9615931598734402  4.1596538885332439 17.9038487297821440   T   T   T
  5.8810315303616925  4.1589099436233381 17.8967247931627078   T   T   T
  9.8021121453973379  4.1568372230897568 17.9012443858624586   T   T   T
 13.7208596761543244  4.1580763671252514 17.9020809819178766   T   T   T
  1.9618794940046571  6.9286134874426430 17.8982795737655955   T   T   T
  5.8811844460146689  6.9244514218664355 17.9001202842007920   T   T   T
  9.8008864037000762  6.9318809320592454 17.9003369573371636   T   T   T
 13.7204389493116672  6.9292818744354543 17.9019933295111180   T   T   T
  1.9591294566458841  9.7016136161439519 17.9019611112426666   T   T   T
  5.8813853638389464  9.7006602686475709 17.9025145528440923   T   T   T
  9.7986318692128709  9.7017932718399340 17.9017794998112230   T   T   T
 13.7199763244958444  9.7012632575337676 17.9008439913575756   T   T   T
  0.0003112041434860 11.0871222085435974 19.1903964490850818   T   T   T
  3.9211279942007611 11.0869858707476574 19.1887420447091124   T   T   T
  7.8398816339737927  0.0022379385016060 19.1913768559207831   T   T   T
 11.7599517889197838  0.0000136384693925 19.1905773586537336   T   T   T
  0.0018919877975408  2.7718586833178627 19.1915460243923839   T   T   T
  3.9130271643000705  2.7639386534271240 19.1693695587953492   T   T   T
  7.8425858446253542  2.7747238578404181 19.1872292972781224   T   T   T
 11.7601842913539869  2.7716144295202398 19.1907829230962292   T   T   T
  0.0051792549782246  5.5443623169711529 19.1901188460870600   T   T   T
  3.9068016600388398  5.5457084320019518 19.2028440249505614   T   T   T
  7.8455445801767612  5.5417129557907003 19.1801801410970789   T   T   T
 11.7598633199144853  5.5438715292298122 19.1905605099717320   T   T   T
  0.0009531825070192  8.3149030600084224 19.1911500038402316   T   T   T
  3.9205731221902833  8.3231651773412327 19.1824043873531274   T   T   T
  7.8377496883640640  8.3125713236646313 19.1925264989462114   T   T   T
 11.7596668379707268  8.3158053570281023 19.1906362701098452   T   T   T
  5.1421021801024480  3.7986646832656539 22.2460046723240232   T   T   T
  5.0440577055401343  5.2756051800087880 21.8897504271799797   T   T   T
  4.6286416552107807  3.5793336567127434 23.1910008233517679   T   T   T
  4.6725309300293612  3.1577868485572216 21.4697495300938215   T   T   T
  6.1889937220492461  3.4727579209194794 22.3267813757531499   T   T   T
  3.9983089461974433  5.5755562166365999 21.6663499306323644   T   T   T
  5.7103471748153263  5.5293520181380016 21.0413436548033062   T   T   T
  5.3783224259483182  5.9307308767737075 22.7121468065772021   T   T   T
