NH3 molecule | 4 atoms | 20x20x20 A box
   1.00000000000000
   20.0000000000000000    0.0000000000000000    0.0000000000000000
    0.0000000000000000   20.0000000000000000    0.0000000000000000
    0.0000000000000000    0.0000000000000000   20.0000000000000000
  N  H
  1  3
Cartesian
   10.0000000000000000    9.7650670000000002   10.1941485000000007
   10.0000000000000000   10.7047979999999985    9.8058514999999993
   10.8138310000000004    9.2952020000000015    9.8058514999999993
    9.1861689999999996    9.2952020000000015    9.8058514999999993
