H2O_Pt110
 1.0000000000000000
    11.7599999999999998    0.0000000000000000    0.0000000000000000
     0.0000000000000000    5.5437171645025325    0.0000000000000000
     0.0000000000000000    0.0000000000000000   34.1577878733768969
 Pt  O   H  
  24   1   2
Selective dynamics
Cartesian
  1.9600000000000000  1.3859292911256331 14.9999999999999982   F   F   F
  5.8799999999999999  1.3859292911256331 14.9999999999999982   F   F   F
  9.8000000000000007  1.3859292911256331 14.9999999999999982   F   F   F
  1.9600000000000000  4.1577878733768996 14.9999999999999982   F   F   F
  5.8799999999999999  4.1577878733768996 14.9999999999999982   F   F   F
  9.8000000000000007  4.1577878733768996 14.9999999999999982   F   F   F
  0.0000000000000000  0.0000000000000000 16.3859292911256311   F   F   F
  3.9199999999999999  0.0000000000000000 16.3859292911256311   F   F   F
  7.8399999999999999  0.0000000000000000 16.3859292911256311   F   F   F
  0.0000000000000000  2.7718585822512662 16.3859292911256311   F   F   F
  3.9199999999999999  2.7718585822512662 16.3859292911256311   F   F   F
  7.8399999999999999  2.7718585822512662 16.3859292911256311   F   F   F
  1.9532502754010159  1.3864589809584531 17.8821039278794593   T   T   T
  5.8680202293846193  1.3866964584704340 17.8802747856919133   T   T   T
  9.7929230979260691  1.3880400665873467 17.9076117102659076   T   T   T
  1.9546368054146817  4.1486669542200056 17.8856108226438941   T   T   T
  5.8727182568238296  4.1619948585657562 17.8869128398474331   T   T   T
  9.7964900199526088  4.1622281780284522 17.9022160940586517   T   T   T
  0.0036236879692154  0.0009890494343420 19.1896072464801293   T   T   T
  3.9006987906091126  0.0054653366682342 19.1659898952614114   T   T   T
  7.8195134240840334  0.0057347620904818 19.1890251963175196   T   T   T
 11.7577998678709985  2.7722217109583878 19.1910401726057636   T   T   T
  3.8258280731911576  2.7952186070190512 19.2391764047581795   T   T   T
  7.8292103503226729  2.7793615299559504 19.1798029347308052   T   T   T
  5.0751459246215829  2.6456366048886282 21.0735423204718835   T   T   T
  4.9693302488249955  1.6957902454018112 21.3008616425549846   T   T   T
  6.0056792367787573  2.7175769211835288 20.7024939039888416   T   T   T
