SO2_Ir111
 1.0000000000000000
    10.8611601590253706    0.0000000000000000    0.0000000000000000
     0.0000000000000000    9.4060406122874021    0.0000000000000000
     0.0000000000000000    0.0000000000000000   36.6510751010644924
 Ir  S   O  
  64   1   2
Selective dynamics
Cartesian
  0.0000000000000000  0.0000000000000000 15.0000000000000018   F   F   F
  2.7152900397563422  0.0000000000000000 15.0000000000000018   F   F   F
  5.4305800795126844  0.0000000000000000 15.0000000000000018   F   F   F
  8.1458701192690270  0.0000000000000000 15.0000000000000018   F   F   F
  1.3576450198781711  2.3515101530718505 15.0000000000000018   F   F   F
  4.0729350596345135  2.3515101530718505 15.0000000000000018   F   F   F
  6.7882250993908571  2.3515101530718505 15.0000000000000018   F   F   F
  9.5035151391471988  2.3515101530718505 15.0000000000000018   F   F   F
  0.0000000000000000  4.7030203061437010 15.0000000000000018   F   F   F
  2.7152900397563422  4.7030203061437010 15.0000000000000018   F   F   F
  5.4305800795126844  4.7030203061437010 15.0000000000000018   F   F   F
  8.1458701192690270  4.7030203061437010 15.0000000000000018   F   F   F
  1.3576450198781711  7.0545304592155516 15.0000000000000018   F   F   F
  4.0729350596345135  7.0545304592155516 15.0000000000000018   F   F   F
  6.7882250993908571  7.0545304592155516 15.0000000000000018   F   F   F
  9.5035151391471988  7.0545304592155516 15.0000000000000018   F   F   F
  1.3576450198781711  0.7838367176906168 17.2170250336881665   F   F   F
  4.0729350596345135  0.7838367176906168 17.2170250336881665   F   F   F
  6.7882250993908571  0.7838367176906168 17.2170250336881665   F   F   F
  9.5035151391471988  0.7838367176906168 17.2170250336881665   F   F   F
  0.0000000000000000  3.1353468707624672 17.2170250336881665   F   F   F
  2.7152900397563422  3.1353468707624672 17.2170250336881665   F   F   F
  5.4305800795126844  3.1353468707624672 17.2170250336881665   F   F   F
  8.1458701192690270  3.1353468707624672 17.2170250336881665   F   F   F
  1.3576450198781711  5.4868570238343182 17.2170250336881665   F   F   F
  4.0729350596345135  5.4868570238343182 17.2170250336881665   F   F   F
  6.7882250993908571  5.4868570238343182 17.2170250336881665   F   F   F
  9.5035151391471988  5.4868570238343182 17.2170250336881665   F   F   F
  0.0000000000000000  7.8383671769061687 17.2170250336881665   F   F   F
  2.7152900397563422  7.8383671769061687 17.2170250336881665   F   F   F
  5.4305800795126844  7.8383671769061687 17.2170250336881665   F   F   F
  8.1458701192690270  7.8383671769061687 17.2170250336881665   F   F   F
  0.0174181237792334  1.5775722765597155 19.4699419397304929   T   T   T
  2.7185399460740061  1.5830574297373481 19.4964246432422925   T   T   T
  5.4182070278509133  1.5777204728686212 19.4695026413844694   T   T   T
  8.1484727332338593  1.5681267134713532 19.4321679998004591   T   T   T
  1.3694705589218508  3.9231050376274736 19.4692271427249466   T   T   T
  4.0657274584818328  3.9232230639834795 19.4689590736374143   T   T   T
  6.7858709945126101  3.9217565660705236 19.4408076869475401   T   T   T
  9.5108990947390062  3.9218255008368654 19.4416212077606474   T   T   T
  0.0076603234648098  6.2750396073262245 19.4407609944061335   T   T   T
  2.7176198417999275  6.2697364915212210 19.4547974902373539   T   T   T
  5.4278500758847690  6.2751044524546309 19.4401526229014898   T   T   T
  8.1484108912995357  6.2752942186097309 19.4388111568585202   T   T   T
  1.3615537403508913  8.6271482334430551 19.4424094269039642   T   T   T
  4.0740322558780795  8.6269774842773437 19.4420072738974561   T   T   T
  6.7922043151055496  8.6303607157621478 19.4369765642296741   T   T   T
  9.5045442770790505  8.6303550018174739 19.4371673397781670   T   T   T
 10.8453255993353963  9.3934350624893366 21.6545760917813261   T   T   T
  2.7197066806118029  9.3873296776257700 21.6472887450344622   T   T   T
  5.4536295336311413  9.3939725537203831 21.6538699516783808   T   T   T
  8.1497716682903025  0.0098284016611127 21.6570255317083600   T   T   T
  1.3208705313772715  2.3481119833390718 21.6781509849874894   T   T   T
  4.1202633347520532  2.3493446324308218 21.6791865163370083   T   T   T
  6.8135880200406591  2.3612310542129742 21.6521267941405284   T   T   T
  9.4857004633359363  2.3614502609038124 21.6530594595194046   T   T   T
 10.8399997121569598  4.7362280273653781 21.6363501245293577   T   T   T
  2.7194598498370017  4.7291099942883958 21.7666728917484100   T   T   T
  5.4594938005180325  4.7368394780808165 21.6348953503035553   T   T   T
  8.1495720347810785  4.7084586761666571 21.6568738929736142   T   T   T
  1.3510592170768863  7.0695659915858808 21.6621762516553531   T   T   T
  4.0871855953486707  7.0698166041525523 21.6620328604769874   T   T   T
  6.7981949213305697  7.0649853292446716 21.6541797341493272   T   T   T
  9.5009627001041004  7.0646659864111854 21.6547324609033680   T   T   T
  2.7237230182083771  3.7257977451712816 23.8739161512902243   T   T   T
  1.4854246407464087  2.7663951631614734 23.7520435278284374   T   T   T
  3.9750375078565003  2.7832858210232261 23.7540109183910246   T   T   T
