NO_Ag111
 1.0000000000000000
     8.6762002051589384    0.0000000000000000    0.0000000000000000
     4.3381001025794710    7.5138097859873962    0.0000000000000000
     0.0000000000000000    0.0000000000000000   37.0840878029567094
 Ag  N   O  
  36   1   1
Selective dynamics
Cartesian
  0.0000000000000000  0.0000000000000000 14.9999999999999982   F   F   F
  2.8920667350529787  0.0000000000000000 14.9999999999999982   F   F   F
  5.7841334701059575  0.0000000000000000 14.9999999999999982   F   F   F
  1.4460333675264903  2.5046032619957987 14.9999999999999982   F   F   F
  4.3381001025794692  2.5046032619957987 14.9999999999999982   F   F   F
  7.2301668376324475  2.5046032619957987 14.9999999999999982   F   F   F
  2.8920667350529805  5.0092065239915975 14.9999999999999982   F   F   F
  5.7841334701059592  5.0092065239915975 14.9999999999999982   F   F   F
  8.6762002051589384  5.0092065239915975 14.9999999999999982   F   F   F
  1.4460333675264898  0.8348677539985995 17.3613626009855686   F   F   F
  4.3381001025794683  0.8348677539985995 17.3613626009855686   F   F   F
  7.2301668376324484  0.8348677539985995 17.3613626009855686   F   F   F
  2.8920667350529801  3.3394710159943979 17.3613626009855686   F   F   F
  5.7841334701059592  3.3394710159943979 17.3613626009855686   F   F   F
  8.6762002051589384  3.3394710159943979 17.3613626009855686   F   F   F
  4.3381001025794710  5.8440742779901944 17.3613626009855686   F   F   F
  7.2301668376324493  5.8440742779901944 17.3613626009855686   F   F   F
 10.1222335726854276  5.8440742779901944 17.3613626009855686   F   F   F
  8.6858496855433689  1.6750345057740592 19.7819997632791065   T   T   T
  2.8794354629328276  1.6766554611821256 19.7735441042889413   T   T   T
  5.7826913779702389  1.6676717491963760 19.7489583943536928   T   T   T
 10.1197234724844893  4.1682253590702034 19.7707551459939062   T   T   T
  4.3418112238612254  4.1755675269764794 19.7549092482547408   T   T   T
  7.2321863000060862  4.1758398401423902 19.7623598577839665   T   T   T
 11.5691163155374763  6.6834159010533245 19.7509466672566631   T   T   T
  5.7845448182650596  6.6802397400557556 19.7632485571196419   T   T   T
  8.6763835606471655  6.6810876911200809 19.7586686220440839   T   T   T
 13.0079250272727958  7.5028818239641444 22.1834108188763501   T   T   T
  7.2288591044111374  7.5130744225288657 22.1737555293574715   T   T   T
 10.1221568705497074  7.5123538704386057 22.1787341535573681   T   T   T
 10.1094038948385112  2.5060876745326115 22.2171585614225506   T   T   T
  4.3507325622219302  2.5050727202187555 22.1508900145987369   T   T   T
  7.2073035282894642  2.5025661935462797 22.1651335393789424   T   T   T
 11.5758295255837140  5.0239487265089826 22.1383235012002793   T   T   T
  5.7868639250278591  5.0113504050652633 22.1872164288462628   T   T   T
  8.6684327234364780  5.0234705414063958 22.1773001768959688   T   T   T
 10.2138510525028074  2.8552296140255202 24.5302002857500874   T   T   T
  2.6096142901419750  2.9393988972098626 25.0177707606994453   T   T   T
