CH3CH2OH_Ag110
 1.0000000000000000
    16.3599999999999994    0.0000000000000000    0.0000000000000000
     0.0000000000000000   11.5682669402119185    0.0000000000000000
     0.0000000000000000    0.0000000000000000   34.3381001025794674
 Ag  C   O   H  
  64   2   1   6
Selective dynamics
Cartesian
  2.0449999999999999  1.4460333675264898 15.0000000000000053   F   F   F
  6.1349999999999998  1.4460333675264898 15.0000000000000053   F   F   F
 10.2249999999999996  1.4460333675264898 15.0000000000000053   F   F   F
 14.3149999999999995  1.4460333675264898 15.0000000000000053   F   F   F
  2.0449999999999999  4.3381001025794692 15.0000000000000053   F   F   F
  6.1349999999999998  4.3381001025794692 15.0000000000000053   F   F   F
 10.2249999999999996  4.3381001025794692 15.0000000000000053   F   F   F
 14.3149999999999995  4.3381001025794692 15.0000000000000053   F   F   F
  2.0449999999999999  7.2301668376324493 15.0000000000000053   F   F   F
  6.1349999999999998  7.2301668376324493 15.0000000000000053   F   F   F
 10.2249999999999996  7.2301668376324493 15.0000000000000053   F   F   F
 14.3149999999999995  7.2301668376324493 15.0000000000000053   F   F   F
  2.0449999999999999 10.1222335726854293 15.0000000000000053   F   F   F
  6.1349999999999998 10.1222335726854293 15.0000000000000053   F   F   F
 10.2249999999999996 10.1222335726854293 15.0000000000000053   F   F   F
 14.3149999999999995 10.1222335726854293 15.0000000000000053   F   F   F
  0.0000000000000000  0.0000000000000000 16.4460333675264891   F   F   F
  4.0899999999999999  0.0000000000000000 16.4460333675264891   F   F   F
  8.1799999999999997  0.0000000000000000 16.4460333675264891   F   F   F
 12.2699999999999996  0.0000000000000000 16.4460333675264891   F   F   F
  0.0000000000000000  2.8920667350529796 16.4460333675264891   F   F   F
  4.0899999999999999  2.8920667350529796 16.4460333675264891   F   F   F
  8.1799999999999997  2.8920667350529796 16.4460333675264891   F   F   F
 12.2699999999999996  2.8920667350529796 16.4460333675264891   F   F   F
  0.0000000000000000  5.7841334701059592 16.4460333675264891   F   F   F
  4.0899999999999999  5.7841334701059592 16.4460333675264891   F   F   F
  8.1799999999999997  5.7841334701059592 16.4460333675264891   F   F   F
 12.2699999999999996  5.7841334701059592 16.4460333675264891   F   F   F
  0.0000000000000000  8.6762002051589384 16.4460333675264891   F   F   F
  4.0899999999999999  8.6762002051589384 16.4460333675264891   F   F   F
  8.1799999999999997  8.6762002051589384 16.4460333675264891   F   F   F
 12.2699999999999996  8.6762002051589384 16.4460333675264891   F   F   F
  2.0384615393375785  1.4447274862464579 17.9809443264484585   T   T   T
  6.1415549306669925  1.4446194663985028 17.9826388822654408   T   T   T
 10.2243055375721781  1.4462186701099884 17.9872689887210804   T   T   T
 14.3151423211315176  1.4463043766044397 17.9867700457954349   T   T   T
  2.0566509696618720  4.3440662670315957 17.9913289767534614   T   T   T
  6.1242052446480502  4.3439083462540129 17.9874547928649413   T   T   T
 10.2248016773439527  4.3380849984333896 17.9857836550933960   T   T   T
 14.3159609999895174  4.3389260552165618 17.9865504110163243   T   T   T
  2.0545574421753976  7.2278065706663170 17.9849688969940793   T   T   T
  6.1229489775822517  7.2267513516532809 17.9846945760755048   T   T   T
 10.2262202332389460  7.2307377675383071 17.9843996532449424   T   T   T
 14.3156633264373436  7.2297422349416838 17.9868438905727714   T   T   T
  2.0410033373634713 10.1218230606921242 17.9852452035814245   T   T   T
  6.1388663696016206 10.1205437255782886 17.9874770660956003   T   T   T
 10.2232406003496141 10.1214084355183971 17.9874749848536233   T   T   T
 14.3156397074310249 10.1216398673769170 17.9867381487562064   T   T   T
 16.3589440374444557 11.5675908003914074 19.3580512240947442   T   T   T
  4.0900970104315828  0.0030760333814201 19.3536370381801994   T   T   T
  8.1809332423830146 11.5666908773557360 19.3583035263838639   T   T   T
 12.2698397323834758 11.5681035006893413 19.3573248839595031   T   T   T
  0.0026771311808708  2.8955984174977472 19.3543798733524248   T   T   T
  4.0901167932355476  2.8719602517680589 19.3465621482094932   T   T   T
  8.1768607311158377  2.8975100877701956 19.3558229930732146   T   T   T
 12.2702727232618294  2.8922115528201080 19.3572599312493807   T   T   T
  0.0048571214780208  5.7858687172719439 19.3574464134986535   T   T   T
  4.0722298548266869  5.7713722119661846 19.4136112213051852   T   T   T
  8.1777962686308605  5.7872364676271468 19.3563576545423217   T   T   T
 12.2694458411351253  5.7839566400268154 19.3567889766250687   T   T   T
  0.0031252307065258  8.6726636194482438 19.3566884201923877   T   T   T
  4.0878263741147984  8.6974022534995470 19.3510447580592952   T   T   T
  8.1758582206844537  8.6692562398221895 19.3604551062370973   T   T   T
 12.2700904648452092  8.6764382210966069 19.3571597256763290   T   T   T
  3.0252132573484984  6.1419654681870766 23.3234281167208763   T   T   T
  4.5042578339250561  6.3075295427480258 23.0917067546009775   T   T   T
  4.7441031830397682  6.6204378787940650 21.6839879618268760   T   T   T
  2.4796787775368911  7.0508404141640826 23.0476908045182256   T   T   T
  2.6180985017737974  5.3005542813076945 22.7511657148641042   T   T   T
  2.8493333388891458  5.9473284326061355 24.3902127307645138   T   T   T
  5.0581945685733363  5.3919089714422492 23.3680905876699754   T   T   T
  4.9114208394419281  7.1334225970313012 23.7014576331964832   T   T   T
  5.7043688366802385  6.7299023335216326 21.5427914721431684   T   T   T
