H2S_Pd110
 1.0000000000000000
    11.6699999999999999    0.0000000000000000    0.0000000000000000
     0.0000000000000000    5.5012907576313399    0.0000000000000000
     0.0000000000000000    0.0000000000000000   34.1259680682235071
 Pd  S   H  
  24   1   2
Selective dynamics
Cartesian
  1.9449999999999998  1.3753226894078348 14.9999999999999929   F   F   F
  5.8349999999999991  1.3753226894078348 14.9999999999999929   F   F   F
  9.7249999999999996  1.3753226894078348 14.9999999999999929   F   F   F
  1.9449999999999998  4.1259680682235054 14.9999999999999929   F   F   F
  5.8349999999999991  4.1259680682235054 14.9999999999999929   F   F   F
  9.7249999999999996  4.1259680682235054 14.9999999999999929   F   F   F
  0.0000000000000000  0.0000000000000000 16.3753226894078345   F   F   F
  3.8899999999999997  0.0000000000000000 16.3753226894078345   F   F   F
  7.7799999999999994  0.0000000000000000 16.3753226894078345   F   F   F
  0.0000000000000000  2.7506453788156695 16.3753226894078345   F   F   F
  3.8899999999999997  2.7506453788156695 16.3753226894078345   F   F   F
  7.7799999999999994  2.7506453788156695 16.3753226894078345   F   F   F
  1.9619576144929169  1.3797523104816221 17.8084493749144741   T   T   T
  5.8249762056446084  1.3725127302912130 17.8124794498977259   T   T   T
  9.7127236016827148  1.3831626775624113 17.8344754637226224   T   T   T
  1.9529438827877952  4.1248067106709572 17.8008807662318986   T   T   T
  5.8250994432478924  4.1244729308662222 17.7967961251710918   T   T   T
  9.7130594697888846  4.1270289740695496 17.8323831660992234   T   T   T
  0.0116385892811197  0.0040987648623479 19.1575185921168227   T   T   T
  3.8639171826244469  5.4907414649603776 19.1952662939847656   T   T   T
  7.7595842198545872  0.0065833909821451 19.1723885339245577   T   T   T
  0.0186962677297681  2.7537745995104785 19.1611922022017254   T   T   T
  3.8328293642727935  2.7321596786954325 19.2519300532037931   T   T   T
  7.7478799117496955  2.7576168857670376 19.2132615090464718   T   T   T
  5.1071489600938023  2.9984272383357591 21.1415682814154664   T   T   T
  5.1580640446704926  4.3677197252596534 21.0843559691157658   T   T   T
  6.4416510127335869  2.9198029432349797 20.5172309643036108   T   T   T
