CO_Ag110
 1.0000000000000000
    12.2699999999999996    0.0000000000000000    0.0000000000000000
     0.0000000000000000    5.7841334701059592    0.0000000000000000
     0.0000000000000000    0.0000000000000000   34.3381001025794674
 Ag  O   C  
  24   1   1
Selective dynamics
Cartesian
  2.0449999999999999  1.4460333675264898 15.0000000000000053   F   F   F
  6.1349999999999998  1.4460333675264898 15.0000000000000053   F   F   F
 10.2249999999999979  1.4460333675264898 15.0000000000000053   F   F   F
  2.0449999999999999  4.3381001025794692 15.0000000000000053   F   F   F
  6.1349999999999998  4.3381001025794692 15.0000000000000053   F   F   F
 10.2249999999999979  4.3381001025794692 15.0000000000000053   F   F   F
  0.0000000000000000  0.0000000000000000 16.4460333675264891   F   F   F
  4.0899999999999999  0.0000000000000000 16.4460333675264891   F   F   F
  8.1799999999999997  0.0000000000000000 16.4460333675264891   F   F   F
  0.0000000000000000  2.8920667350529796 16.4460333675264891   F   F   F
  4.0899999999999999  2.8920667350529796 16.4460333675264891   F   F   F
  8.1799999999999997  2.8920667350529796 16.4460333675264891   F   F   F
  2.0447731131015123  1.4500056362928917 17.9808517057745121   T   T   T
  6.1400475492580089  1.4453400584748433 17.9767112135105904   T   T   T
 10.2256745524265611  1.4461790960573551 17.9862447305239286   T   T   T
  2.0483419084398502  4.3319974558743981 17.9847675373954523   T   T   T
  6.1359553756876482  4.3394312291405717 17.9828762419438668   T   T   T
 10.2259977272510927  4.3379670240433690 17.9859304738518908   T   T   T
 12.2683173315624536  0.0002024904986813 19.3540639194144077   T   T   T
  4.0889935985355255  5.7807485481253726 19.3425207514317599   T   T   T
  8.1799102439288465  5.7839008676480139 19.3588623522172227   T   T   T
 12.2697439187062312  2.8922041128538205 19.3539165058348210   T   T   T
  4.0899443111629319  2.8926761781589900 19.4144384317658236   T   T   T
  8.1820433910940924  2.8916743675785073 19.3536776807832425   T   T   T
  5.2662313446743862  2.3719796159824953 22.3779556707520477   T   T   T
  4.6473200925915670  2.6105073571193143 21.4404296419891942   T   T   T
