CH3CH2OH_Ir110
 1.0000000000000000
    11.5199999999999996    0.0000000000000000    0.0000000000000000
     0.0000000000000000    5.4305800795126853    0.0000000000000000
     0.0000000000000000    0.0000000000000000   34.0729350596345171
 Ir  C   O   H  
  24   2   1   6
Selective dynamics
Cartesian
  1.9199999999999999  1.3576450198781711 15.0000000000000018   F   F   F
  5.7599999999999989  1.3576450198781711 15.0000000000000018   F   F   F
  9.5999999999999996  1.3576450198781711 15.0000000000000018   F   F   F
  1.9199999999999999  4.0729350596345135 15.0000000000000018   F   F   F
  5.7599999999999989  4.0729350596345135 15.0000000000000018   F   F   F
  9.5999999999999996  4.0729350596345135 15.0000000000000018   F   F   F
  0.0000000000000000  0.0000000000000000 16.3576450198781735   F   F   F
  3.8399999999999999  0.0000000000000000 16.3576450198781735   F   F   F
  7.6799999999999997  0.0000000000000000 16.3576450198781735   F   F   F
  0.0000000000000000  2.7152900397563422 16.3576450198781735   F   F   F
  3.8399999999999999  2.7152900397563422 16.3576450198781735   F   F   F
  7.6799999999999997  2.7152900397563422 16.3576450198781735   F   F   F
  1.9164749071904437  1.3725327565329526 17.7762637812742419   T   T   T
  5.7623559094082566  1.3592327422167227 17.7735922222000262   T   T   T
  9.6025839850342312  1.3578824310993449 17.7819464053353116   T   T   T
  1.9189855912673595  4.0689796739538098 17.7826880779280110   T   T   T
  5.7642704353030361  4.0826190983165862 17.7708739658523029   T   T   T
  9.6008510989551379  4.0828027541677248 17.7776697040140519   T   T   T
  0.0030039425665176  0.0034901717294721 19.0083783196732590   T   T   T
  3.8255618276258310  0.0138045686048456 18.9671144105820240   T   T   T
  7.6819381588687667  0.0083822257318108 19.0083164904065249   T   T   T
  0.0017608412019258  2.7220606384050372 19.0029907165160239   T   T   T
  3.8097496631435717  2.7205739508557500 19.0300264138618509   T   T   T
  7.6875579597770676  2.7217867191557081 18.9972004253160129   T   T   T
  3.2854765095382357  1.9635900116689573 22.5949446575334036   T   T   T
  4.6669318923894689  1.8441229266031609 22.0068463912956283   T   T   T
  4.8714435716612119  2.8453356802542640 20.9632725591889830   T   T   T
  5.8254880500511881  2.7946863801775770 20.6671684744537920   T   T   T
  5.4635952651155932  2.0052843375133644 22.7488379161845131   T   T   T
  4.8269055537625949  0.8498451546639956 21.5459750561630052   T   T   T
  3.1276471825527552  2.9446044707966106 23.0582438762727655   T   T   T
  2.5115320588577497  1.8197256422480399 21.8309155349371125   T   T   T
  3.1631409676363895  1.1925536675343558 23.3679232103381089   T   T   T
