CH3CH2OH molecule | 9 atoms | 20x20x20 A box
   1.00000000000000
   20.0000000000000000    0.0000000000000000    0.0000000000000000
    0.0000000000000000   20.0000000000000000    0.0000000000000000
    0.0000000000000000    0.0000000000000000   20.0000000000000000
  C  O  H
  2  1  6
Cartesian
   11.0835469999999994    9.5144810000000000   10.0000000000000000
    9.9153659999999988   10.4743250000000003   10.0000000000000000
    8.7252829999999992    9.6871939999999981   10.0000000000000000
    7.9687429999999981   10.2963880000000003   10.0000000000000000
    9.9579229999999992   11.1223710000000011   10.8869329999999991
    9.9579229999999992   11.1223710000000011    9.1130670000000009
   12.0312570000000019   10.0596630000000005   10.0000000000000000
   11.0439649999999983    8.8776289999999989   10.8858809999999995
   11.0439649999999983    8.8776289999999989    9.1141190000000005
