H2O_Ag100
 1.0000000000000000
     8.6762002051589384    0.0000000000000000    0.0000000000000000
     0.0000000000000000    8.6762002051589384    0.0000000000000000
     0.0000000000000000    0.0000000000000000   36.1349999999999980
 Ag  O   H  
  36   1   2
Selective dynamics
Cartesian
  1.4460333675264894  1.4460333675264894 15.0000000000000000   F   F   F
  4.3381001025794692  1.4460333675264894 15.0000000000000000   F   F   F
  7.2301668376324475  1.4460333675264894 15.0000000000000000   F   F   F
  1.4460333675264894  4.3381001025794692 15.0000000000000000   F   F   F
  4.3381001025794692  4.3381001025794692 15.0000000000000000   F   F   F
  7.2301668376324475  4.3381001025794692 15.0000000000000000   F   F   F
  1.4460333675264894  7.2301668376324475 15.0000000000000000   F   F   F
  4.3381001025794692  7.2301668376324475 15.0000000000000000   F   F   F
  7.2301668376324475  7.2301668376324475 15.0000000000000000   F   F   F
  0.0000000000000000  0.0000000000000000 17.0450000000000017   F   F   F
  2.8920667350529787  0.0000000000000000 17.0450000000000017   F   F   F
  5.7841334701059575  0.0000000000000000 17.0450000000000017   F   F   F
  0.0000000000000000  2.8920667350529787 17.0450000000000017   F   F   F
  2.8920667350529787  2.8920667350529787 17.0450000000000017   F   F   F
  5.7841334701059575  2.8920667350529787 17.0450000000000017   F   F   F
  0.0000000000000000  5.7841334701059575 17.0450000000000017   F   F   F
  2.8920667350529787  5.7841334701059575 17.0450000000000017   F   F   F
  5.7841334701059575  5.7841334701059575 17.0450000000000017   F   F   F
  1.4417674236743319  1.4449461605638725 19.1588159329719119   T   T   T
  4.3423816527268890  1.4449930141640805 19.1588616213147880   T   T   T
  7.2301474988764998  1.4459676013470015 19.1660963222832414   T   T   T
  1.4507370700254569  4.3422610429775723 19.1748585003161267   T   T   T
  4.3332961321344916  4.3423116664604056 19.1749271329749682   T   T   T
  7.2300416219249311  4.3340180233452577 19.1586260770248948   T   T   T
  1.4507917596145401  7.2247172692752182 19.1762548064305562   T   T   T
  4.3332634418654994  7.2246881908059466 19.1762799293036146   T   T   T
  7.2301309045812427  7.2331059098080148 19.1602950716718183   T   T   T
  0.0028244091622703  8.6731586436995673 21.2505441109821476   T   T   T
  2.8920246814483153  0.0132886701070872 21.2441767694313661   T   T   T
  5.7811263219188440  8.6733336520000712 21.2506300072387724   T   T   T
  0.0037397733945554  2.8957955520725820 21.2542636487039047   T   T   T
  2.8920695767146922  2.8741699462503791 21.2374047000260475   T   T   T
  5.7805649693462273  2.8957387099867695 21.2541822387574051   T   T   T
  8.6638677494529404  5.7822740464595679 21.2410513415414322   T   T   T
  2.8931597719050277  5.7928389396791822 21.2741955691973921   T   T   T
  5.7965216524607914  5.7824897017687009 21.2415856605958986   T   T   T
  2.8512054303908538  5.1773541787290851 24.0388649164597936   T   T   T
  2.0783348563210913  4.5925616677969501 23.9138973727160931   T   T   T
  3.6159981213482770  4.5743157007003949 23.9608389302092633   T   T   T
