C2H6_Cu110
 1.0000000000000000
    10.8300000000000001    0.0000000000000000    0.0000000000000000
     0.0000000000000000    5.1053109601668734    0.0000000000000000
     0.0000000000000000    0.0000000000000000   33.8289832201251528
 Cu  C   H  
  24   2   6
Selective dynamics
Cartesian
  1.8049999999999999  1.2763277400417183 14.9999999999999982   F   F   F
  5.4149999999999991  1.2763277400417183 14.9999999999999982   F   F   F
  9.0249999999999986  1.2763277400417183 14.9999999999999982   F   F   F
  1.8049999999999999  3.8289832201251550 14.9999999999999982   F   F   F
  5.4149999999999991  3.8289832201251550 14.9999999999999982   F   F   F
  9.0249999999999986  3.8289832201251550 14.9999999999999982   F   F   F
  0.0000000000000000  0.0000000000000000 16.2763277400417152   F   F   F
  3.6099999999999999  0.0000000000000000 16.2763277400417152   F   F   F
  7.2199999999999998  0.0000000000000000 16.2763277400417152   F   F   F
  0.0000000000000000  2.5526554800834367 16.2763277400417152   F   F   F
  3.6099999999999999  2.5526554800834367 16.2763277400417152   F   F   F
  7.2199999999999998  2.5526554800834367 16.2763277400417152   F   F   F
  1.8049158079663394  1.2761555121591999 17.6150923769642773   T   T   T
  5.4151210917018551  1.2761064120502006 17.6152848642417403   T   T   T
  9.0249407717657206  1.2763517751326749 17.6146917863745003   T   T   T
  1.8050000623813847  3.8291642553968237 17.6147018335983816   T   T   T
  5.4151313693675016  3.8291952044652433 17.6148772599159003   T   T   T
  9.0250233051179993  3.8290183226241856 17.6146616128062696   T   T   T
  0.0001036643589466  5.1052448352903967 18.7755182993175929   T   T   T
  3.6098335428486026  5.1051324871676185 18.7757138709757463   T   T   T
  7.2199525297645186  5.1052093115121968 18.7753583144646825   T   T   T
  0.0001321805105528  2.5526839272329274 18.7755556024202548   T   T   T
  3.6098794671107477  2.5530120415622934 18.7747524010721847   T   T   T
  7.2198239424023507  2.5527594685153869 18.7755271058034090   T   T   T
  3.5075866727670451  4.4265792181356858 22.4701153462520402   T   T   T
  4.7812741760760806  5.0136647988517176 23.0742260014964096   T   T   T
  3.7250666463942745  3.7972912609383558 21.5905650212779925   T   T   T
  2.9655689434706498  3.7925443004696131 23.1892329043373771   T   T   T
  2.8084485467178770  0.1061172476702742 22.1423499021881014   T   T   T
  5.3164261236602304  0.5422318471546144 22.3537640086429796   T   T   T
  5.4740557070985671  4.2251911487585341 23.3990317603542621   T   T   T
  4.5583787795101864  0.5271234037456258 23.9548999480118034   T   T   T
