NH3_Pd111
 1.0000000000000000
     8.2519361364470107    0.0000000000000000    0.0000000000000000
     4.1259680682235054    7.1463863245699208    0.0000000000000000
     0.0000000000000000    0.0000000000000000   36.7376776414429358
 Pd  N   H  
  36   1   3
Selective dynamics
Cartesian
  0.0000000000000000  0.0000000000000000 15.0000000000000000   F   F   F
  2.7506453788156700  0.0000000000000000 15.0000000000000000   F   F   F
  5.5012907576313399  0.0000000000000000 15.0000000000000000   F   F   F
  1.3753226894078350  2.3821287748566400 15.0000000000000000   F   F   F
  4.1259680682235054  2.3821287748566400 15.0000000000000000   F   F   F
  6.8766134470391753  2.3821287748566400 15.0000000000000000   F   F   F
  2.7506453788156700  4.7642575497132800 15.0000000000000000   F   F   F
  5.5012907576313399  4.7642575497132800 15.0000000000000000   F   F   F
  8.2519361364470107  4.7642575497132800 15.0000000000000000   F   F   F
  1.3753226894078350  0.7940429249522137 17.2458925471476441   F   F   F
  4.1259680682235045  0.7940429249522137 17.2458925471476441   F   F   F
  6.8766134470391744  0.7940429249522137 17.2458925471476441   F   F   F
  2.7506453788156700  3.1761716998088549 17.2458925471476441   F   F   F
  5.5012907576313399  3.1761716998088549 17.2458925471476441   F   F   F
  8.2519361364470090  3.1761716998088549 17.2458925471476441   F   F   F
  4.1259680682235054  5.5583004746654945 17.2458925471476441   F   F   F
  6.8766134470391753  5.5583004746654945 17.2458925471476441   F   F   F
  9.6272588258548453  5.5583004746654945 17.2458925471476441   F   F   F
  8.2529304219169379  1.5881362102184291 19.5274764252739352   T   T   T
  2.7492278530762073  1.5871175787449519 19.5273312751534682   T   T   T
  5.5015021963468271  1.5880747069599384 19.5291514781499806   T   T   T
  9.6293324443747821  3.9691273579351494 19.5273439557758124   T   T   T
  4.1328711993092604  3.9738514045192610 19.5427653506334380   T   T   T
  6.8721617022690307  3.9738237149488596 19.5388147107218870   T   T   T
 11.0023201969147131  6.3521126010444426 19.5304510748478926   T   T   T
  5.5003018308996126  6.3434812970069778 19.5448525422970292   T   T   T
  8.2517367206235441  6.3530041423036296 19.5294324906286931   T   T   T
  8.2461118264080522  0.0122238152008972 21.8335181663284565   T   T   T
  2.7561226724748042  0.0100037969149953 21.8337037026135015   T   T   T
  9.6277959740849699  7.1458897246405542 21.8441315613112970   T   T   T
  1.3757928168388693  2.3814125355743117 21.8466862508378910   T   T   T
  4.1155737754243500  2.3673577888798216 21.8277369986364960   T   T   T
  6.8846792000264632  2.3699361148001059 21.8272918154792563   T   T   T
 10.9919566092151637  4.7636719434144874 21.8349621293688330   T   T   T
  5.5051718829898739  4.7581661394679591 21.8965413827162507   T   T   T
  8.2708558322996826  4.7630177543313863 21.8254175045194820   T   T   T
  5.5641652057068773  4.6961435611731153 24.0081997483491847   T   T   T
  5.1600237366621844  3.8103435351857722 24.3235700268766557   T   T   T
  6.5414820311359216  4.7662795957931872 24.3042867119130364   T   T   T
  5.0222099971219603  5.4873855691895654 24.3634797386517086   T   T   T
