CO2_Pt100
 1.0000000000000000
    11.0874343290050650    0.0000000000000000    0.0000000000000000
     0.0000000000000000   11.0874343290050650    0.0000000000000000
     0.0000000000000000    0.0000000000000000   35.8800000000000026
 Pt  O   C  
  64   2   1
Selective dynamics
Cartesian
  1.3859292911256331  1.3859292911256331 15.0000000000000018   F   F   F
  4.1577878733768996  1.3859292911256331 15.0000000000000018   F   F   F
  6.9296464556281654  1.3859292911256331 15.0000000000000018   F   F   F
  9.7015050378794339  1.3859292911256331 15.0000000000000018   F   F   F
  1.3859292911256331  4.1577878733768996 15.0000000000000018   F   F   F
  4.1577878733768996  4.1577878733768996 15.0000000000000018   F   F   F
  6.9296464556281654  4.1577878733768996 15.0000000000000018   F   F   F
  9.7015050378794339  4.1577878733768996 15.0000000000000018   F   F   F
  1.3859292911256331  6.9296464556281654 15.0000000000000018   F   F   F
  4.1577878733768996  6.9296464556281654 15.0000000000000018   F   F   F
  6.9296464556281654  6.9296464556281654 15.0000000000000018   F   F   F
  9.7015050378794339  6.9296464556281654 15.0000000000000018   F   F   F
  1.3859292911256331  9.7015050378794339 15.0000000000000018   F   F   F
  4.1577878733768996  9.7015050378794339 15.0000000000000018   F   F   F
  6.9296464556281654  9.7015050378794339 15.0000000000000018   F   F   F
  9.7015050378794339  9.7015050378794339 15.0000000000000018   F   F   F
  0.0000000000000000  0.0000000000000000 16.9600000000000009   F   F   F
  2.7718585822512662  0.0000000000000000 16.9600000000000009   F   F   F
  5.5437171645025325  0.0000000000000000 16.9600000000000009   F   F   F
  8.3155757467537992  0.0000000000000000 16.9600000000000009   F   F   F
  0.0000000000000000  2.7718585822512662 16.9600000000000009   F   F   F
  2.7718585822512662  2.7718585822512662 16.9600000000000009   F   F   F
  5.5437171645025325  2.7718585822512662 16.9600000000000009   F   F   F
  8.3155757467537992  2.7718585822512662 16.9600000000000009   F   F   F
  0.0000000000000000  5.5437171645025325 16.9600000000000009   F   F   F
  2.7718585822512662  5.5437171645025325 16.9600000000000009   F   F   F
  5.5437171645025325  5.5437171645025325 16.9600000000000009   F   F   F
  8.3155757467537992  5.5437171645025325 16.9600000000000009   F   F   F
  0.0000000000000000  8.3155757467537992 16.9600000000000009   F   F   F
  2.7718585822512662  8.3155757467537992 16.9600000000000009   F   F   F
  5.5437171645025325  8.3155757467537992 16.9600000000000009   F   F   F
  8.3155757467537992  8.3155757467537992 16.9600000000000009   F   F   F
  1.3858771223003894  1.3858979307883659 18.9528450912324828   T   T   T
  4.1577720079624214  1.3865467049767350 18.9531406024596656   T   T   T
  6.9297124827455852  1.3859066414356738 18.9528500882916902   T   T   T
  9.7014990965978338  1.3857405029259626 18.9530151384901728   T   T   T
  1.3862827227954155  4.1578367058944457 18.9536108658617977   T   T   T
  4.1577900308303768  4.1590320117394111 18.9568269452191025   T   T   T
  6.9294044477533570  4.1578841261788329 18.9537550376810700   T   T   T
  9.7015025306248504  4.1577969332181404 18.9529029299927636   T   T   T
  1.3862480614918189  6.9295617322444389 18.9536174772070289   T   T   T
  4.1578858977182227  6.9283253778411780 18.9567990558371520   T   T   T
  6.9294108348801018  6.9295142237698677 18.9537697154567688   T   T   T
  9.7015140789625693  6.9296339500730362 18.9529095209148792   T   T   T
  1.3858865014134600  9.7015397747380199 18.9528636509669823   T   T   T
  4.1577750516940624  9.7010084489413408 18.9528641352171903   T   T   T
  6.9297454888865477  9.7015429863058475 18.9528049248159505   T   T   T
  9.7014951568926300  9.7016544848896586 18.9530385649951896   T   T   T
  0.0003496064473052  0.0000036682038245 20.9418752114117055   T   T   T
  2.7720393741418747  0.0000918601517605 20.9416238734559528   T   T   T
  5.5435678259814196  0.0000627178127343 20.9416476331515433   T   T   T
  8.3152037613912704 11.0874124058542183 20.9419041657277099   T   T   T
  0.0009774677435563  2.7723313638516078 20.9418500864400592   T   T   T
  2.7723704755310905  2.7714825984431406 20.9411032526143330   T   T   T
  5.5433119168274470  2.7715680649118037 20.9410177012851619   T   T   T
  8.3144676395567494  2.7724143549281814 20.9418947548813534   T   T   T
  0.0005833691781716  5.5436920270868448 20.9412297124856153   T   T   T
  2.7706167022003534  5.5438184751340671 20.9388547207042137   T   T   T
  5.5446806526070880  5.5438045546997650 20.9385410109572980   T   T   T
  8.3150194344292547  5.5436635990240548 20.9410162196552392   T   T   T
  0.0008784513553215  8.3150965454387986 20.9418418046560149   T   T   T
  2.7725254354601168  8.3153939332600455 20.9416448104615682   T   T   T
  5.5432720543721041  8.3154286818005847 20.9416781225013580   T   T   T
  8.3146107976462069  8.3151161367117421 20.9418476849665005   T   T   T
  5.4297327060225635  5.3885262691698514 24.3305972823978713   T   T   T
  3.0783517557551847  5.4443384066444604 24.2925674020911693   T   T   T
  4.2544516876341172  5.4165078136654730 24.2885856854348212   T   T   T
