C2H4_Au110
 1.0000000000000000
    16.3200000000000003    0.0000000000000000    0.0000000000000000
     0.0000000000000000   11.5399826689644573    0.0000000000000000
     0.0000000000000000    0.0000000000000000   34.3274935008616708
 Au  C   H  
  64   2   4
Selective dynamics
Cartesian
  2.0400000000000000  1.4424978336205572 14.9999999999999964   F   F   F
  6.1200000000000001  1.4424978336205572 14.9999999999999964   F   F   F
 10.1999999999999922  1.4424978336205572 14.9999999999999964   F   F   F
 14.2800000000000011  1.4424978336205572 14.9999999999999964   F   F   F
  2.0400000000000000  4.3274935008616717 14.9999999999999964   F   F   F
  6.1200000000000001  4.3274935008616717 14.9999999999999964   F   F   F
 10.1999999999999922  4.3274935008616717 14.9999999999999964   F   F   F
 14.2800000000000011  4.3274935008616717 14.9999999999999964   F   F   F
  2.0400000000000000  7.2124891681027856 14.9999999999999964   F   F   F
  6.1200000000000001  7.2124891681027856 14.9999999999999964   F   F   F
 10.1999999999999922  7.2124891681027856 14.9999999999999964   F   F   F
 14.2800000000000011  7.2124891681027856 14.9999999999999964   F   F   F
  2.0400000000000000 10.0974848353439004 14.9999999999999964   F   F   F
  6.1200000000000001 10.0974848353439004 14.9999999999999964   F   F   F
 10.1999999999999922 10.0974848353439004 14.9999999999999964   F   F   F
 14.2800000000000011 10.0974848353439004 14.9999999999999964   F   F   F
  0.0000000000000000  0.0000000000000000 16.4424978336205569   F   F   F
  4.0800000000000001  0.0000000000000000 16.4424978336205569   F   F   F
  8.1600000000000001  0.0000000000000000 16.4424978336205569   F   F   F
 12.2400000000000002  0.0000000000000000 16.4424978336205569   F   F   F
  0.0000000000000000  2.8849956672411143 16.4424978336205569   F   F   F
  4.0800000000000001  2.8849956672411143 16.4424978336205569   F   F   F
  8.1600000000000001  2.8849956672411143 16.4424978336205569   F   F   F
 12.2400000000000002  2.8849956672411143 16.4424978336205569   F   F   F
  0.0000000000000000  5.7699913344822287 16.4424978336205569   F   F   F
  4.0800000000000001  5.7699913344822287 16.4424978336205569   F   F   F
  8.1600000000000001  5.7699913344822287 16.4424978336205569   F   F   F
 12.2400000000000002  5.7699913344822287 16.4424978336205569   F   F   F
  0.0000000000000000  8.6549870017233435 16.4424978336205569   F   F   F
  4.0800000000000001  8.6549870017233435 16.4424978336205569   F   F   F
  8.1600000000000001  8.6549870017233435 16.4424978336205569   F   F   F
 12.2400000000000002  8.6549870017233435 16.4424978336205569   F   F   F
  2.0345202339476218  1.4435855159731781 18.0384585192617166   T   T   T
  6.1272270263877262  1.4430879102420151 18.0493845405491840   T   T   T
 10.1828392451446046  1.4431222554524379 18.0799604472620068   T   T   T
 14.3019711040401365  1.4433408336972138 18.0788580821847518   T   T   T
  2.0867638739948897  4.3447187512268215 18.0569245934162161   T   T   T
  6.0849517925505463  4.3447095266844995 18.0571804300872252   T   T   T
 10.1910936698903960  4.3283727112515251 18.0725888033044448   T   T   T
 14.3000212153594912  4.3321582723801075 18.0766388271643166   T   T   T
  2.0805719523335120  7.2129018360931063 18.0325196424297332   T   T   T
  6.0754581577416014  7.2127301802494959 18.0365771798945858   T   T   T
 10.1976397144874511  7.2132001320998764 18.0659326681992844   T   T   T
 14.3026576767636957  7.2133223431896107 18.0806942371099950   T   T   T
  2.0857276301411454 10.0823099343066680 18.0558085129406045   T   T   T
  6.0847384732436360 10.0815511853234572 18.0574805617431586   T   T   T
 10.1908578306177073 10.0978502863616662 18.0730940876481085   T   T   T
 14.3001783984618065 10.0945951819701527 18.0768362384546357   T   T   T
  0.0364906109148475 11.5291811672116822 19.3996721144931001   T   T   T
  4.0844724823854355  0.0406682022931486 19.4079963047318245   T   T   T
  8.1312836232391899 11.5260711814597698 19.3995397748759189   T   T   T
 12.2449654236119532  0.0005615091327848 19.3901553442720846   T   T   T
  0.0366380722676404  2.8989115727480508 19.4001232918990212   T   T   T
  4.0851893988284553  2.8466534654038229 19.4070772429460980   T   T   T
  8.1316234269827596  2.9014887018409659 19.3999905459156849   T   T   T
 12.2449768962864471  2.8850651596427634 19.3903583095606464   T   T   T
  0.0483850568598511  5.7785715621940410 19.4027090501726853   T   T   T
  4.0295559887004835  5.7281459692667216 19.5760673313961604   T   T   T
  8.1310334111694136  5.7822625138537509 19.3883238733733592   T   T   T
 12.2458588383797622  5.7698683020193640 19.3897404810186949   T   T   T
  0.0487261435480107  8.6494388489541549 19.4020635909352457   T   T   T
  4.0286819267687708  8.6991193897442471 19.5736228050021204   T   T   T
  8.1301219306994952  8.6448466873146774 19.3879666015736127   T   T   T
 12.2457920345209974  8.6561026105857355 19.3895852146769023   T   T   T
  4.6513432584149283  6.4892739857967481 21.5145419310108572   T   T   T
  4.6285828589002849  7.9411482480203297 21.5237418009036325   T   T   T
  5.6423335284592664  6.0236362954666074 21.5730425677509459   T   T   T
  3.9012401774107714  5.9916407048700986 22.1400601460649007   T   T   T
  5.6018504047694515  8.4412143403638087 21.6006347786758575   T   T   T
  3.8501638207664937  8.4091152055159419 22.1372902509004383   T   T   T
