HCOOH_Ir111
 1.0000000000000000
    10.8611601590253706    0.0000000000000000    0.0000000000000000
     0.0000000000000000    9.4060406122874021    0.0000000000000000
     0.0000000000000000    0.0000000000000000   36.6510751010644924
 Ir  O   C   H  
  64   2   1   2
Selective dynamics
Cartesian
  0.0000000000000000  0.0000000000000000 15.0000000000000018   F   F   F
  2.7152900397563422  0.0000000000000000 15.0000000000000018   F   F   F
  5.4305800795126844  0.0000000000000000 15.0000000000000018   F   F   F
  8.1458701192690270  0.0000000000000000 15.0000000000000018   F   F   F
  1.3576450198781711  2.3515101530718505 15.0000000000000018   F   F   F
  4.0729350596345135  2.3515101530718505 15.0000000000000018   F   F   F
  6.7882250993908571  2.3515101530718505 15.0000000000000018   F   F   F
  9.5035151391471988  2.3515101530718505 15.0000000000000018   F   F   F
  0.0000000000000000  4.7030203061437010 15.0000000000000018   F   F   F
  2.7152900397563422  4.7030203061437010 15.0000000000000018   F   F   F
  5.4305800795126844  4.7030203061437010 15.0000000000000018   F   F   F
  8.1458701192690270  4.7030203061437010 15.0000000000000018   F   F   F
  1.3576450198781711  7.0545304592155516 15.0000000000000018   F   F   F
  4.0729350596345135  7.0545304592155516 15.0000000000000018   F   F   F
  6.7882250993908571  7.0545304592155516 15.0000000000000018   F   F   F
  9.5035151391471988  7.0545304592155516 15.0000000000000018   F   F   F
  1.3576450198781711  0.7838367176906168 17.2170250336881665   F   F   F
  4.0729350596345135  0.7838367176906168 17.2170250336881665   F   F   F
  6.7882250993908571  0.7838367176906168 17.2170250336881665   F   F   F
  9.5035151391471988  0.7838367176906168 17.2170250336881665   F   F   F
  0.0000000000000000  3.1353468707624672 17.2170250336881665   F   F   F
  2.7152900397563422  3.1353468707624672 17.2170250336881665   F   F   F
  5.4305800795126844  3.1353468707624672 17.2170250336881665   F   F   F
  8.1458701192690270  3.1353468707624672 17.2170250336881665   F   F   F
  1.3576450198781711  5.4868570238343182 17.2170250336881665   F   F   F
  4.0729350596345135  5.4868570238343182 17.2170250336881665   F   F   F
  6.7882250993908571  5.4868570238343182 17.2170250336881665   F   F   F
  9.5035151391471988  5.4868570238343182 17.2170250336881665   F   F   F
  0.0000000000000000  7.8383671769061687 17.2170250336881665   F   F   F
  2.7152900397563422  7.8383671769061687 17.2170250336881665   F   F   F
  5.4305800795126844  7.8383671769061687 17.2170250336881665   F   F   F
  8.1458701192690270  7.8383671769061687 17.2170250336881665   F   F   F
 10.8562045819231621  1.5668732739080287 19.4394117828441786   T   T   T
  2.7132784629280806  1.5648190865294493 19.4444139989576570   T   T   T
  5.4301607523199635  1.5640631103872091 19.4404860632897716   T   T   T
  8.1442844735746380  1.5653118421314034 19.4469052142746364   T   T   T
  1.3641411357908972  3.9230280220258709 19.4748497137068242   T   T   T
  4.0618822325718700  3.9239707979807523 19.4791972940828231   T   T   T
  6.7846560678514765  3.9150257049151462 19.4393347034478516   T   T   T
  9.5012352113708918  3.9124581042688096 19.4419744963150514   T   T   T
  0.0011940815836593  6.2663108843252910 19.4466125389024711   T   T   T
  2.7154987539572408  6.2566782584715837 19.4848403085438697   T   T   T
  5.4256852441837378  6.2664237975647845 19.4489978165077879   T   T   T
  8.1431864594684509  6.2679851242441966 19.4465965277702431   T   T   T
  1.3591653497370757  8.6180890655804845 19.4430781876682737   T   T   T
  4.0695700877012886  8.6171712129050331 19.4419013145152846   T   T   T
  6.7853646755315191  8.6173595931878442 19.4460913681848560   T   T   T
  9.4998237038044788  8.6188520096494816 19.4434627027669791   T   T   T
 10.8545223221099576  9.4004481881276494 21.6593067422812275   T   T   T
  2.7110624229865712  0.0001058632797213 21.6553344804209189   T   T   T
  5.4350516900152357  9.4010642890984286 21.6559776370364290   T   T   T
  8.1410288895074032  9.3985460386062183 21.6606500373949160   T   T   T
  1.3438373457347512  2.3299047728576205 21.6459939059610740   T   T   T
  4.0784170074848438  2.3266634286329952 21.6463636685832839   T   T   T
  6.7839962109703684  2.3465049742587167 21.6560377104909243   T   T   T
  9.5043324020915438  2.3447374429582966 21.6582675475935638   T   T   T
 10.8361084583018563  4.6978186129979331 21.6540713876307862   T   T   T
  2.7191278716202052  4.7030185459368576 21.7372866704317218   T   T   T
  5.4518821556496775  4.6919490078119797 21.6483320779179067   T   T   T
  8.1402562359410116  4.6996179027696687 21.6584484209865806   T   T   T
  1.3375633711542900  7.0642914840454454 21.6512027038263319   T   T   T
  4.0731038588492625  7.0567618815127542 21.6817410668204857   T   T   T
  6.7873914813468170  7.0505827406316426 21.6611443295259214   T   T   T
  9.5045736273503874  7.0495502102870482 21.6587550804116589   T   T   T
  3.8308289916578206  6.3856879649546929 24.5992586347625171   T   T   T
  2.6849855731649113  4.5416457382988655 23.8775490253981779   T   T   T
  3.1893116245094912  5.2809332163971714 24.7634993015451492   T   T   T
  3.9044957192619734  6.6071104895548549 23.5003921155639617   T   T   T
  3.0725529710358712  4.9525961711002049 25.8056189175041837   T   T   T
