CO2_Ir100
 1.0000000000000000
     8.1458701192690270    0.0000000000000000    0.0000000000000000
     0.0000000000000000    8.1458701192690270    0.0000000000000000
     0.0000000000000000    0.0000000000000000   35.7599999999999980
 Ir  C   O  
  36   1   2
Selective dynamics
Cartesian
  1.3576450198781711  1.3576450198781711 15.0000000000000018   F   F   F
  4.0729350596345135  1.3576450198781711 15.0000000000000018   F   F   F
  6.7882250993908553  1.3576450198781711 15.0000000000000018   F   F   F
  1.3576450198781711  4.0729350596345135 15.0000000000000018   F   F   F
  4.0729350596345135  4.0729350596345135 15.0000000000000018   F   F   F
  6.7882250993908553  4.0729350596345135 15.0000000000000018   F   F   F
  1.3576450198781711  6.7882250993908553 15.0000000000000018   F   F   F
  4.0729350596345135  6.7882250993908553 15.0000000000000018   F   F   F
  6.7882250993908553  6.7882250993908553 15.0000000000000018   F   F   F
  0.0000000000000000  0.0000000000000000 16.9200000000000017   F   F   F
  2.7152900397563422  0.0000000000000000 16.9200000000000017   F   F   F
  5.4305800795126844  0.0000000000000000 16.9200000000000017   F   F   F
  0.0000000000000000  2.7152900397563422 16.9200000000000017   F   F   F
  2.7152900397563422  2.7152900397563422 16.9200000000000017   F   F   F
  5.4305800795126844  2.7152900397563422 16.9200000000000017   F   F   F
  0.0000000000000000  5.4305800795126844 16.9200000000000017   F   F   F
  2.7152900397563422  5.4305800795126844 16.9200000000000017   F   F   F
  5.4305800795126844  5.4305800795126844 16.9200000000000017   F   F   F
  1.3575272765888060  1.3569766659478801 18.8862254653989190   T   T   T
  4.0738816976031771  1.3591545427686282 18.8819608733047417   T   T   T
  6.7880512953849550  1.3593126065505259 18.8815857239469977   T   T   T
  1.3572691210134196  4.0729444748443253 18.8811414822831090   T   T   T
  4.0751417248568851  4.0727306246868009 18.8796006817392019   T   T   T
  6.7863837017700055  4.0727367886590855 18.8795746872379588   T   T   T
  1.3575407444269558  6.7887949231711273 18.8863921968727340   T   T   T
  4.0737548349254240  6.7867030604303267 18.8820912424331375   T   T   T
  6.7881164866261434  6.7866390353518034 18.8817206487074927   T   T   T
  0.0001816076674537  0.0000348124733305 20.7403218493892041   T   T   T
  2.7143295942611951  0.0000025941958458 20.7392763741439978   T   T   T
  5.4306021435207468  8.1458251694873010 20.7412475616689314   T   T   T
  0.0006485200883776  2.7153134516800259 20.7404234741771667   T   T   T
  2.7150933052741273  2.7155923338233126 20.7403290846027488   T   T   T
  5.4301752883354135  2.7139826978532908 20.7405802153575110   T   T   T
  0.0005474377594732  5.4304530530610791 20.7399652628397995   T   T   T
  2.7150696040627427  5.4303257194945012 20.7399100007368666   T   T   T
  5.4300280871468800  5.4319541828042972 20.7407780898816689   T   T   T
  1.5869908244983264  8.0320091557974251 24.1833785758285522   T   T   T
  0.4105067172216391  8.0405497622905013 24.1769559498240412   T   T   T
  2.7615658506076977  8.0231002310337090 24.2413375407839062   T   T   T
