NH3_Ag111
 1.0000000000000000
     8.6762002051589384    0.0000000000000000    0.0000000000000000
     4.3381001025794710    7.5138097859873962    0.0000000000000000
     0.0000000000000000    0.0000000000000000   37.0840878029567094
 Ag  N   H  
  36   1   3
Selective dynamics
Cartesian
  0.0000000000000000  0.0000000000000000 14.9999999999999982   F   F   F
  2.8920667350529787  0.0000000000000000 14.9999999999999982   F   F   F
  5.7841334701059575  0.0000000000000000 14.9999999999999982   F   F   F
  1.4460333675264903  2.5046032619957987 14.9999999999999982   F   F   F
  4.3381001025794692  2.5046032619957987 14.9999999999999982   F   F   F
  7.2301668376324475  2.5046032619957987 14.9999999999999982   F   F   F
  2.8920667350529805  5.0092065239915975 14.9999999999999982   F   F   F
  5.7841334701059592  5.0092065239915975 14.9999999999999982   F   F   F
  8.6762002051589384  5.0092065239915975 14.9999999999999982   F   F   F
  1.4460333675264898  0.8348677539985995 17.3613626009855686   F   F   F
  4.3381001025794683  0.8348677539985995 17.3613626009855686   F   F   F
  7.2301668376324484  0.8348677539985995 17.3613626009855686   F   F   F
  2.8920667350529801  3.3394710159943979 17.3613626009855686   F   F   F
  5.7841334701059592  3.3394710159943979 17.3613626009855686   F   F   F
  8.6762002051589384  3.3394710159943979 17.3613626009855686   F   F   F
  4.3381001025794710  5.8440742779901944 17.3613626009855686   F   F   F
  7.2301668376324493  5.8440742779901944 17.3613626009855686   F   F   F
 10.1222335726854276  5.8440742779901944 17.3613626009855686   F   F   F
  8.6815931370484147  1.6714937038226245 19.7523465556001590   T   T   T
  2.8865742134194989  1.6713547661685693 19.7524766562823757   T   T   T
  5.7841163605981878  1.6691781484172536 19.7640394443194616   T   T   T
 10.1218296800653160  4.1687346609912694 19.7527155018274989   T   T   T
  4.3500402143898160  4.1813748250548342 19.7929340372144580   T   T   T
  7.2178384305720655  4.1817835105508756 19.7935493064497585   T   T   T
 11.5673375821183750  6.6799794469516716 19.7634980564537983   T   T   T
  5.7840081902235339  6.6630994848777494 19.7963637482270869   T   T   T
  8.6772351636925773  6.6798383817072375 19.7633510303746043   T   T   T
  8.6695775479157966  0.0096254688262334 22.1672214871628412   T   T   T
  2.8982580300028382  0.0087605095053581 22.1674354092546722   T   T   T
 10.1219856638982471  7.5134008427300634 22.2080101352570658   T   T   T
  1.4460150921854908  2.5040964821352381 22.2013421485064839   T   T   T
  4.3283330752112477  2.4860730548544709 22.1574144830772930   T   T   T
  7.2397451950095979  2.4872499236493852 22.1571825899186869   T   T   T
 11.5502211127548744  5.0104051117113313 22.1604105544315750   T   T   T
  5.7808945966806666  5.0036886451686193 22.2813531436621481   T   T   T
  8.6900097625877706  5.0104592251228048 22.1640464544648772   T   T   T
  5.7522514850200936  4.8376738206173187 24.8152523212169633   T   T   T
  5.8452405947097539  3.8666905739040276 25.1257606019077180   T   T   T
  6.5308156449668280  5.3669123674159351 25.2162987681328765   T   T   T
  4.8857031006152507  5.2082366963842306 25.2145607531491898   T   T   T
