CO_Ir110
 1.0000000000000000
    11.5199999999999996    0.0000000000000000    0.0000000000000000
     0.0000000000000000    5.4305800795126853    0.0000000000000000
     0.0000000000000000    0.0000000000000000   34.0729350596345171
 Ir  O   C  
  24   1   1
Selective dynamics
Cartesian
  1.9199999999999999  1.3576450198781711 15.0000000000000018   F   F   F
  5.7599999999999989  1.3576450198781711 15.0000000000000018   F   F   F
  9.5999999999999996  1.3576450198781711 15.0000000000000018   F   F   F
  1.9199999999999999  4.0729350596345135 15.0000000000000018   F   F   F
  5.7599999999999989  4.0729350596345135 15.0000000000000018   F   F   F
  9.5999999999999996  4.0729350596345135 15.0000000000000018   F   F   F
  0.0000000000000000  0.0000000000000000 16.3576450198781735   F   F   F
  3.8399999999999999  0.0000000000000000 16.3576450198781735   F   F   F
  7.6799999999999997  0.0000000000000000 16.3576450198781735   F   F   F
  0.0000000000000000  2.7152900397563422 16.3576450198781735   F   F   F
  3.8399999999999999  2.7152900397563422 16.3576450198781735   F   F   F
  7.6799999999999997  2.7152900397563422 16.3576450198781735   F   F   F
  1.9044317080971134  1.3567419561965990 17.7349398655929491   T   T   T
  5.7782405729193904  1.3567593119408301 17.7276584444740735   T   T   T
  9.5998303295571272  1.3572559470618988 17.7822304267984919   T   T   T
  1.9220437760870419  4.0717669963964962 17.7852135570977161   T   T   T
  5.7553765308926828  4.0718688763940722 17.7914417418567261   T   T   T
  9.6027062252362079  4.0725428720633374 17.7677690408862361   T   T   T
  0.0055267570606312  5.4282070204107864 19.0050012065091458   T   T   T
  3.8419836657238053  5.4223721132000255 19.0289791461404931   T   T   T
  7.6748365065522322  5.4272084347784455 19.0041361406343015   T   T   T
  0.0054057680945112  2.7167343480788553 19.0052017110484250   T   T   T
  3.8425730644531755  2.7178696811890073 19.0304376801788919   T   T   T
  7.6748901634120719  2.7177751924555729 19.0043663722070342   T   T   T
  4.3148711774681932  1.3488916331747465 21.6817129356245637   T   T   T
  4.0963602431149830  1.3524032221850866 20.5065095753715170   T   T   T
