CH3_Rh100
 1.0000000000000000
     8.0673812665573212    0.0000000000000000    0.0000000000000000
     0.0000000000000000    8.0673812665573212    0.0000000000000000
     0.0000000000000000    0.0000000000000000   35.7044999999999959
 Rh  C   H  
  36   1   3
Selective dynamics
Cartesian
  1.3445635444262201  1.3445635444262201 14.9999999999999964   F   F   F
  4.0336906332786597  1.3445635444262201 14.9999999999999964   F   F   F
  6.7228177221311043  1.3445635444262201 14.9999999999999964   F   F   F
  1.3445635444262201  4.0336906332786597 14.9999999999999964   F   F   F
  4.0336906332786597  4.0336906332786597 14.9999999999999964   F   F   F
  6.7228177221311043  4.0336906332786597 14.9999999999999964   F   F   F
  1.3445635444262201  6.7228177221311043 14.9999999999999964   F   F   F
  4.0336906332786597  6.7228177221311043 14.9999999999999964   F   F   F
  6.7228177221311043  6.7228177221311043 14.9999999999999964   F   F   F
  0.0000000000000000  0.0000000000000000 16.9014999999999986   F   F   F
  2.6891270888524401  0.0000000000000000 16.9014999999999986   F   F   F
  5.3782541777048802  0.0000000000000000 16.9014999999999986   F   F   F
  0.0000000000000000  2.6891270888524401 16.9014999999999986   F   F   F
  2.6891270888524401  2.6891270888524401 16.9014999999999986   F   F   F
  5.3782541777048802  2.6891270888524401 16.9014999999999986   F   F   F
  0.0000000000000000  5.3782541777048802 16.9014999999999986   F   F   F
  2.6891270888524401  5.3782541777048802 16.9014999999999986   F   F   F
  5.3782541777048802  5.3782541777048802 16.9014999999999986   F   F   F
  1.3499825453934529  1.3493594466375785 18.8523926603469434   T   T   T
  4.0292329867771031  1.3491472686146542 18.8517563297158546   T   T   T
  6.7220072203767200  1.3489226604377569 18.8411189129981054   T   T   T
  1.3497905814598599  4.0284493747984707 18.8522321935358264   T   T   T
  4.0295289842968147  4.0291542882904903 18.8514553828035787   T   T   T
  6.7222181103364189  4.0291047975729617 18.8416106677468704   T   T   T
  1.3484783347534304  6.7226419745165833 18.8414082194152641   T   T   T
  4.0290962640145009  6.7228087007816519 18.8413460302368811   T   T   T
  6.7225711284688368  6.7225042000635327 18.8380743881492947   T   T   T
  0.0019556137396942  0.0002242652293120 20.6868805677290695   T   T   T
  2.6896998884745713  8.0590469204658230 20.6836441063953664   T   T   T
  5.3780332112657732  0.0021296792520677 20.6878098390650322   T   T   T
  8.0590581313492446  2.6886538057101586 20.6851032350347737   T   T   T
  2.6850274229966948  2.6871227954900014 20.7335009414818998   T   T   T
  5.3827137662019693  2.6891328021739769 20.6841122093672354   T   T   T
  0.0027546451344853  5.3772366794137900 20.6872896992185815   T   T   T
  2.6895490624619196  5.3837658945929858 20.6841795314858210   T   T   T
  5.3775177721814247  5.3756139185575051 20.6881687087094370   T   T   T
  2.5891009697920357  2.6575017001477734 22.7988838841365613   T   T   T
  3.6239705203668935  2.6972496791060827 23.1755917456385525   T   T   T
  2.0952924885547328  1.7284883003762401 23.1256054776682305   T   T   T
  2.0195954350300993  3.5370384930049577 23.1385693537535424   T   T   T
