CH3CH2OH_Au111
 1.0000000000000000
     8.6549870017233435    0.0000000000000000    0.0000000000000000
     4.3274935008616717    7.4954386129165247    0.0000000000000000
     0.0000000000000000    0.0000000000000000   37.0667672948810178
 Au  C   O   H  
  36   2   1   6
Selective dynamics
Cartesian
  0.0000000000000000  0.0000000000000000 15.0000000000000000   F   F   F
  2.8849956672411143  0.0000000000000000 15.0000000000000000   F   F   F
  5.7699913344822287  0.0000000000000000 15.0000000000000000   F   F   F
  1.4424978336205572  2.4984795376388416 15.0000000000000000   F   F   F
  4.3274935008616717  2.4984795376388416 15.0000000000000000   F   F   F
  7.2124891681027856  2.4984795376388416 15.0000000000000000   F   F   F
  2.8849956672411143  4.9969590752776831 15.0000000000000000   F   F   F
  5.7699913344822287  4.9969590752776831 15.0000000000000000   F   F   F
  8.6549870017233435  4.9969590752776831 15.0000000000000000   F   F   F
  1.4424978336205572  0.8328265125462805 17.3555890982936738   F   F   F
  4.3274935008616717  0.8328265125462805 17.3555890982936738   F   F   F
  7.2124891681027865  0.8328265125462805 17.3555890982936738   F   F   F
  2.8849956672411143  3.3313060501851219 17.3555890982936738   F   F   F
  5.7699913344822287  3.3313060501851219 17.3555890982936738   F   F   F
  8.6549870017233435  3.3313060501851219 17.3555890982936738   F   F   F
  4.3274935008616717  5.8297855878239639 17.3555890982936738   F   F   F
  7.2124891681027856  5.8297855878239639 17.3555890982936738   F   F   F
 10.0974848353439004  5.8297855878239639 17.3555890982936738   F   F   F
  8.6546790054469831  1.6653674853805072 19.8061564253013067   T   T   T
  2.8853205113480320  1.6657757832249021 19.8123667077826937   T   T   T
  5.7689507742063162  1.6663346357875510 19.8113701288882851   T   T   T
 10.0974068587616443  4.1643584580922726 19.8072949970937806   T   T   T
  4.3274751237467202  4.1630734923237869 19.8101754583333651   T   T   T
  7.2127409175545552  4.1640640138727365 19.8072840505030960   T   T   T
 11.5408575739558366  6.6628003775018554 19.8043989313217565   T   T   T
  5.7697087505361866  6.6630538216940023 19.8060419033113355   T   T   T
  8.6547070559124109  6.6622160021291688 19.8071701533275721   T   T   T
  8.6547960374367747  0.0007587414401531 22.3164059214724837   T   T   T
  7.2105746111526345  7.4940075613396280 22.3114568464995102   T   T   T
 10.1000560652481290  7.4916470695283621 22.3113080011260116   T   T   T
 10.0961691359158419  2.4986660064629707 22.3090009262543845   T   T   T
  4.3268957032271009  2.5023883726228426 22.3065692024103122   T   T   T
  7.2136278666790741  2.4985548838724019 22.3140592751280984   T   T   T
 11.5385683802615002  4.9964117408235014 22.3125162665088332   T   T   T
  5.7693666985574792  4.9960539562833262 22.3145587939118997   T   T   T
  8.6563814927198628  4.9979055362987772 22.3173985413268454   T   T   T
  2.9176734487855063  3.1278558446357310 26.6037872164852374   T   T   T
  4.0901065427959145  2.1823598932768715 26.6352074159442367   T   T   T
  4.2787792795396458  1.6324443663471802 25.3147879613009579   T   T   T
  5.0574303152977489  1.0477336257069187 25.3058933618620898   T   T   T
  5.0138288681188223  2.6921698553198192 26.9686497417771527   T   T   T
  3.9169557928614669  1.3630971109541894 27.3569022685653742   T   T   T
  3.1036796155066662  3.9480634507900128 25.9023374194321896   T   T   T
  2.0124547628240035  2.6051766596196066 26.2774039239727593   T   T   T
  2.7371040236701623  3.5548624963877895 27.5982725320834597   T   T   T
