CO_Pd100
 1.0000000000000000
     8.2519361364470107    0.0000000000000000    0.0000000000000000
     0.0000000000000000    8.2519361364470107    0.0000000000000000
     0.0000000000000000    0.0000000000000000   35.8350000000000009
 Pd  O   C  
  36   1   1
Selective dynamics
Cartesian
  1.3753226894078350  1.3753226894078350 15.0000000000000000   F   F   F
  4.1259680682235054  1.3753226894078350 15.0000000000000000   F   F   F
  6.8766134470391780  1.3753226894078350 15.0000000000000000   F   F   F
  1.3753226894078350  4.1259680682235054 15.0000000000000000   F   F   F
  4.1259680682235054  4.1259680682235054 15.0000000000000000   F   F   F
  6.8766134470391780  4.1259680682235054 15.0000000000000000   F   F   F
  1.3753226894078350  6.8766134470391780 15.0000000000000000   F   F   F
  4.1259680682235054  6.8766134470391780 15.0000000000000000   F   F   F
  6.8766134470391780  6.8766134470391780 15.0000000000000000   F   F   F
  0.0000000000000000  0.0000000000000000 16.9450000000000003   F   F   F
  2.7506453788156700  0.0000000000000000 16.9450000000000003   F   F   F
  5.5012907576313399  0.0000000000000000 16.9450000000000003   F   F   F
  0.0000000000000000  2.7506453788156700 16.9450000000000003   F   F   F
  2.7506453788156700  2.7506453788156700 16.9450000000000003   F   F   F
  5.5012907576313399  2.7506453788156700 16.9450000000000003   F   F   F
  0.0000000000000000  5.5012907576313399 16.9450000000000003   F   F   F
  2.7506453788156700  5.5012907576313399 16.9450000000000003   F   F   F
  5.5012907576313399  5.5012907576313399 16.9450000000000003   F   F   F
  1.3720152578008677  1.3757138110600948 18.9307897144232129   T   T   T
  4.1297145917354010  1.3756815165691825 18.9323999893129944   T   T   T
  6.8759212472619788  1.3750410955255350 18.9385985941255619   T   T   T
  1.3832597279302798  4.1264250809140881 18.9550231311792317   T   T   T
  4.1168370164962091  4.1251305904537334 18.9571889623375363   T   T   T
  6.8754405411811144  4.1307650574186479 18.9387877849812902   T   T   T
  1.3843095310699167  6.8810997588368128 18.9583993589511657   T   T   T
  4.1156279155112490  6.8822986253474276 18.9606231688767259   T   T   T
  6.8753423769544915  6.8718635247817348 18.9389896055336919   T   T   T
  8.2434131402963633  8.2472606534146440 20.9217145034325789   T   T   T
  2.7499524324082625  0.0153886467260359 21.0026449291334742   T   T   T
  5.5096442319147307  8.2484043484874014 20.9259242677489574   T   T   T
  8.2441595896247222  2.7558911177715086 20.9198020907652236   T   T   T
  2.7503475029176121  2.7449836321390628 20.9925523140443495   T   T   T
  5.5097676061548002  2.7545486364761009 20.9240657541903552   T   T   T
  0.0071882699580416  5.5014816020012463 20.9370111726104753   T   T   T
  2.7500874892804781  5.5071056513994847 20.9685364406342636   T   T   T
  5.4923818230574168  5.5012756032491374 20.9383221139798081   T   T   T
  2.6430223196898082  1.3914632913659257 23.6111971541733290   T   T   T
  2.6829383777878775  1.3884953221807417 22.4316541061743457   T   T   T
