CH3COOH_Pt110
 1.0000000000000000
    11.7599999999999998    0.0000000000000000    0.0000000000000000
     0.0000000000000000    5.5437171645025325    0.0000000000000000
     0.0000000000000000    0.0000000000000000   34.1577878733768969
 Pt  C   O   H  
  24   2   2   4
Selective dynamics
Cartesian
  1.9600000000000000  1.3859292911256331 14.9999999999999982   F   F   F
  5.8799999999999999  1.3859292911256331 14.9999999999999982   F   F   F
  9.8000000000000007  1.3859292911256331 14.9999999999999982   F   F   F
  1.9600000000000000  4.1577878733768996 14.9999999999999982   F   F   F
  5.8799999999999999  4.1577878733768996 14.9999999999999982   F   F   F
  9.8000000000000007  4.1577878733768996 14.9999999999999982   F   F   F
  0.0000000000000000  0.0000000000000000 16.3859292911256311   F   F   F
  3.9199999999999999  0.0000000000000000 16.3859292911256311   F   F   F
  7.8399999999999999  0.0000000000000000 16.3859292911256311   F   F   F
  0.0000000000000000  2.7718585822512662 16.3859292911256311   F   F   F
  3.9199999999999999  2.7718585822512662 16.3859292911256311   F   F   F
  7.8399999999999999  2.7718585822512662 16.3859292911256311   F   F   F
  1.9476773350296781  1.3669352470467524 17.8679819094677192   T   T   T
  5.8718419225961176  1.3729585107657891 17.8969170509929683   T   T   T
  9.8083803509144296  1.3736415519583787 17.9076847750929602   T   T   T
  1.9603100102234801  4.1347770354473079 17.8748773881760847   T   T   T
  5.8753008988329380  4.1444280133078069 17.8890288870288607   T   T   T
  9.8050275295498217  4.1485887890325026 17.9092871435815333   T   T   T
  0.0199444322059819  5.5221126455181384 19.1938511205476914   T   T   T
  3.8886659289502221  5.5150635502791499 19.1536654823968355   T   T   T
  7.8296112533363473  5.5370061744690808 19.1849035982998366   T   T   T
  0.0167907628802732  2.7529160423025232 19.1931270670953786   T   T   T
  3.8599840058082120  2.7562615187593233 19.2241997293029065   T   T   T
  7.8391842100591136  2.7608024702585094 19.1714220948871095   T   T   T
  5.5241344127511978  2.7860159344113358 23.3981683101868683   T   T   T
  4.9777054694419789  3.2870406594092798 22.1003925815985838   T   T   T
  4.7029618744230044  2.4747068051293155 21.1859811570120371   T   T   T
  4.8213106813698730  4.5876215378158598 22.0305280046219636   T   T   T
  6.5060269106440423  3.2396194391010300 23.5781907045531334   T   T   T
  5.6005533057014230  1.6983504843143149 23.3759861954831223   T   T   T
  4.8667929801632015  3.0985170497507046 24.2183403210753028   T   T   T
  4.4789112912595019  4.8625098562461160 21.0859357476059728   T   T   T
