CH3OCH3_Au111
 1.0000000000000000
     8.6549870017233435    0.0000000000000000    0.0000000000000000
     4.3274935008616717    7.4954386129165247    0.0000000000000000
     0.0000000000000000    0.0000000000000000   37.0667672948810178
 Au  C   O   H  
  36   2   1   6
Selective dynamics
Cartesian
  0.0000000000000000  0.0000000000000000 15.0000000000000000   F   F   F
  2.8849956672411143  0.0000000000000000 15.0000000000000000   F   F   F
  5.7699913344822287  0.0000000000000000 15.0000000000000000   F   F   F
  1.4424978336205572  2.4984795376388416 15.0000000000000000   F   F   F
  4.3274935008616717  2.4984795376388416 15.0000000000000000   F   F   F
  7.2124891681027856  2.4984795376388416 15.0000000000000000   F   F   F
  2.8849956672411143  4.9969590752776831 15.0000000000000000   F   F   F
  5.7699913344822287  4.9969590752776831 15.0000000000000000   F   F   F
  8.6549870017233435  4.9969590752776831 15.0000000000000000   F   F   F
  1.4424978336205572  0.8328265125462805 17.3555890982936738   F   F   F
  4.3274935008616717  0.8328265125462805 17.3555890982936738   F   F   F
  7.2124891681027865  0.8328265125462805 17.3555890982936738   F   F   F
  2.8849956672411143  3.3313060501851219 17.3555890982936738   F   F   F
  5.7699913344822287  3.3313060501851219 17.3555890982936738   F   F   F
  8.6549870017233435  3.3313060501851219 17.3555890982936738   F   F   F
  4.3274935008616717  5.8297855878239639 17.3555890982936738   F   F   F
  7.2124891681027856  5.8297855878239639 17.3555890982936738   F   F   F
 10.0974848353439004  5.8297855878239639 17.3555890982936738   F   F   F
  8.6551048015154262  1.6657571065604619 19.8062816694952950   T   T   T
  2.8849194673036389  1.6657373770486807 19.8066733337398233   T   T   T
  5.7699615311146335  1.6653394872787670 19.8066432840846858   T   T   T
 10.0976185481369090  4.1640137487698485 19.8066138407223420   T   T   T
  4.3276515051029554  4.1641312678553284 19.8104060165764011   T   T   T
  7.2122110449501191  4.1639777889431642 19.8107866153726313   T   T   T
 11.5396945694967616  6.6627579687781306 19.8068269917948570   T   T   T
  5.7696578475780909  6.6624556748651944 19.8102904464874001   T   T   T
  8.6552499976845780  6.6628495690604943 19.8076062141290699   T   T   T
  8.6544791660306739  0.0001541476688801 22.3112977251450886   T   T   T
  7.2123704867814213  7.4946290982896988 22.3127239206724965   T   T   T
  5.7714800664281416  0.0009747250641213 22.3163845626459825   T   T   T
 10.0961870592336762  2.4976154625137066 22.3148360968062285   T   T   T
  4.3280573391807104  2.4984942284359262 22.3109349393598428   T   T   T
  7.2124162951937922  2.4974921568057109 22.3109558853463099   T   T   T
  2.8855981271263711  4.9974272535595370 22.3110699284303706   T   T   T
  5.7698642037832224  4.9968520864240791 22.3021597576917969   T   T   T
  8.6543388855504091  4.9971720663183659 22.3136794274431161   T   T   T
  5.0371260102718498  5.9604716233266686 26.4326066368723147   T   T   T
  6.0070703660024307  3.8014079011610327 26.5441416481757066   T   T   T
  5.6742623435799837  4.9081870506925283 25.7114702352509354   T   T   T
  5.6977927073166965  6.3637677099178660 27.2224981551623308   T   T   T
  4.7947340558611078  6.7601081763425892 25.7216776046482494   T   T   T
  4.1076793567556109  5.6085243792614081 26.9162858562149587   T   T   T
  6.6590373547475341  4.1104686599502447 27.3801444257245770   T   T   T
  6.5349718170822229  3.0626998676103097 25.9304938626406241   T   T   T
  5.1023540005627526  3.3406637323495878 26.9793710336440533   T   T   T
