N2_Ir111
 1.0000000000000000
    10.8611601590253706    0.0000000000000000    0.0000000000000000
     0.0000000000000000    9.4060406122874021    0.0000000000000000
     0.0000000000000000    0.0000000000000000   36.6510751010644924
 Ir  N  
  64   2
Selective dynamics
Cartesian
  0.0000000000000000  0.0000000000000000 15.0000000000000018   F   F   F
  2.7152900397563422  0.0000000000000000 15.0000000000000018   F   F   F
  5.4305800795126844  0.0000000000000000 15.0000000000000018   F   F   F
  8.1458701192690270  0.0000000000000000 15.0000000000000018   F   F   F
  1.3576450198781711  2.3515101530718505 15.0000000000000018   F   F   F
  4.0729350596345135  2.3515101530718505 15.0000000000000018   F   F   F
  6.7882250993908571  2.3515101530718505 15.0000000000000018   F   F   F
  9.5035151391471988  2.3515101530718505 15.0000000000000018   F   F   F
  0.0000000000000000  4.7030203061437010 15.0000000000000018   F   F   F
  2.7152900397563422  4.7030203061437010 15.0000000000000018   F   F   F
  5.4305800795126844  4.7030203061437010 15.0000000000000018   F   F   F
  8.1458701192690270  4.7030203061437010 15.0000000000000018   F   F   F
  1.3576450198781711  7.0545304592155516 15.0000000000000018   F   F   F
  4.0729350596345135  7.0545304592155516 15.0000000000000018   F   F   F
  6.7882250993908571  7.0545304592155516 15.0000000000000018   F   F   F
  9.5035151391471988  7.0545304592155516 15.0000000000000018   F   F   F
  1.3576450198781711  0.7838367176906168 17.2170250336881665   F   F   F
  4.0729350596345135  0.7838367176906168 17.2170250336881665   F   F   F
  6.7882250993908571  0.7838367176906168 17.2170250336881665   F   F   F
  9.5035151391471988  0.7838367176906168 17.2170250336881665   F   F   F
  0.0000000000000000  3.1353468707624672 17.2170250336881665   F   F   F
  2.7152900397563422  3.1353468707624672 17.2170250336881665   F   F   F
  5.4305800795126844  3.1353468707624672 17.2170250336881665   F   F   F
  8.1458701192690270  3.1353468707624672 17.2170250336881665   F   F   F
  1.3576450198781711  5.4868570238343182 17.2170250336881665   F   F   F
  4.0729350596345135  5.4868570238343182 17.2170250336881665   F   F   F
  6.7882250993908571  5.4868570238343182 17.2170250336881665   F   F   F
  9.5035151391471988  5.4868570238343182 17.2170250336881665   F   F   F
  0.0000000000000000  7.8383671769061687 17.2170250336881665   F   F   F
  2.7152900397563422  7.8383671769061687 17.2170250336881665   F   F   F
  5.4305800795126844  7.8383671769061687 17.2170250336881665   F   F   F
  8.1458701192690270  7.8383671769061687 17.2170250336881665   F   F   F
  0.0004158703743706  1.5673646482941277 19.4445945016205961   T   T   T
  2.7138572760186022  1.5718295401787135 19.4414775458825559   T   T   T
  5.4308347807168289  1.5722554534921573 19.4475395792184464   T   T   T
  8.1479799986809844  1.5717965753863339 19.4413458087338142   T   T   T
  1.3617981942864472  3.9152294709692579 19.4424952157659767   T   T   T
  4.0851063491941044  3.9260098529000658 19.4699935805874951   T   T   T
  6.7769706499337623  3.9257203639250431 19.4690562163423060   T   T   T
  9.5001806904115682  3.9152230767553480 19.4422798724253632   T   T   T
  0.0003632470697940  6.2693630852403448 19.4428894756407971   T   T   T
  2.7198254915336295  6.2672768483181809 19.4485014398311549   T   T   T
  5.4307249457702937  6.2555342359224602 19.4712465269622044   T   T   T
  8.1419691104900682  6.2673413011270585 19.4482805060522708   T   T   T
  1.3581174238386333  8.6205857993998372 19.4415684772885626   T   T   T
  4.0772247131576442  8.6212018960692358 19.4419837363252590   T   T   T
  6.7844520789806220  8.6212363011056592 19.4418604875920700   T   T   T
  9.5036740035617289  8.6206052739770769 19.4414749340351598   T   T   T
  0.0004594354763587  9.4047540506677141 21.6566217026294616   T   T   T
  2.7077049902789589  9.4039072758902051 21.6561419964241573   T   T   T
  5.4310292238237672  0.0003745541565152 21.6541122411567706   T   T   T
  8.1542452641431868  9.4039202576708565 21.6560621756048306   T   T   T
  1.3595654555993832  2.3487374652336435 21.6548570244285798   T   T   T
  4.0603175583515272  2.3247750324215062 21.6562822676604441   T   T   T
  6.8019265798421422  2.3247967743893927 21.6555465318892537   T   T   T
  9.5029514318188184  2.3486148808420722 21.6547062984493586   T   T   T
  0.0003662051421435  4.7049391410335168 21.6555675379803816   T   T   T
  2.6852978247110508  4.7048080147842377 21.6587938687970087   T   T   T
  5.4318465683623760  4.7005030206006566 21.7892594325622007   T   T   T
  8.1771315867110488  4.7046300207850429 21.6574948218187266   T   T   T
  1.3611613580514106  7.0544045477000914 21.6589131826941674   T   T   T
  4.0560041082314759  7.0763444428790905 21.6582053031800648   T   T   T
  6.8061302384021385  7.0765931943179705 21.6576230440856996   T   T   T
  9.5012137616075378  7.0546267920105414 21.6587942606919803   T   T   T
  5.4623699423879888  4.6357496250158166 24.8353635166053408   T   T   T
  5.4482503881474669  4.6648473478416772 23.7041875572861400   T   T   T
