NO_Pd111
 1.0000000000000000
     8.2519361364470107    0.0000000000000000    0.0000000000000000
     4.1259680682235054    7.1463863245699208    0.0000000000000000
     0.0000000000000000    0.0000000000000000   36.7376776414429358
 Pd  N   O  
  36   1   1
Selective dynamics
Cartesian
  0.0000000000000000  0.0000000000000000 15.0000000000000000   F   F   F
  2.7506453788156700  0.0000000000000000 15.0000000000000000   F   F   F
  5.5012907576313399  0.0000000000000000 15.0000000000000000   F   F   F
  1.3753226894078350  2.3821287748566400 15.0000000000000000   F   F   F
  4.1259680682235054  2.3821287748566400 15.0000000000000000   F   F   F
  6.8766134470391753  2.3821287748566400 15.0000000000000000   F   F   F
  2.7506453788156700  4.7642575497132800 15.0000000000000000   F   F   F
  5.5012907576313399  4.7642575497132800 15.0000000000000000   F   F   F
  8.2519361364470107  4.7642575497132800 15.0000000000000000   F   F   F
  1.3753226894078350  0.7940429249522137 17.2458925471476441   F   F   F
  4.1259680682235045  0.7940429249522137 17.2458925471476441   F   F   F
  6.8766134470391744  0.7940429249522137 17.2458925471476441   F   F   F
  2.7506453788156700  3.1761716998088549 17.2458925471476441   F   F   F
  5.5012907576313399  3.1761716998088549 17.2458925471476441   F   F   F
  8.2519361364470090  3.1761716998088549 17.2458925471476441   F   F   F
  4.1259680682235054  5.5583004746654945 17.2458925471476441   F   F   F
  6.8766134470391753  5.5583004746654945 17.2458925471476441   F   F   F
  9.6272588258548453  5.5583004746654945 17.2458925471476441   F   F   F
  8.2421950794270415  1.5938661508518184 19.5582306251132785   T   T   T
  2.7616063285582615  1.5944552162373473 19.5597077046989014   T   T   T
  5.5009059965931044  1.5907764020525965 19.5263092127165976   T   T   T
  9.6273866321404284  3.9663639835065538 19.5214771710772865   T   T   T
  4.1281471216794552  3.9686424693139575 19.5264471482655964   T   T   T
  6.8745469769632699  3.9691514142857049 19.5245332265814184   T   T   T
 11.0058736368050774  6.3543146320389070 19.5216614138211071   T   T   T
  5.5013918046923971  6.3412474973766066 19.5582345486008258   T   T   T
  8.2486936752062086  6.3544343031111490 19.5215165286872541   T   T   T
 12.3737812581714746  7.1449345152957644 21.8507303292323201   T   T   T
  6.8817808814749020  7.1462010069956827 21.8505849479895389   T   T   T
  9.6271983134762884  7.1270921629053179 21.8187530218110233   T   T   T
  9.6288732162255819  2.3870157646538126 21.8505409848969805   T   T   T
  4.1040972514260874  2.3703425611762605 21.9082432419407027   T   T   T
  6.9035384582411528  2.3681440522995660 21.8975445291896342   T   T   T
 10.9854877072827559  4.7743083045640633 21.8186656525409255   T   T   T
  5.5019209025141222  4.7952910985537720 21.8984670713149541   T   T   T
  8.2698035004318164  4.7748246992371239 21.8177379612161282   T   T   T
  5.5127070316190743  3.1828353390669419 23.1317406409141313   T   T   T
  5.5266369125490540  3.1905933536558448 24.3404197222606271   T   T   T
