CH3COOH_Cu100
 1.0000000000000000
    10.2106219203337467    0.0000000000000000    0.0000000000000000
     0.0000000000000000   10.2106219203337467    0.0000000000000000
     0.0000000000000000    0.0000000000000000   35.4149999999999991
 Cu  C   O   H  
  64   2   2   4
Selective dynamics
Cartesian
  1.2763277400417183  1.2763277400417183 15.0000000000000000   F   F   F
  3.8289832201251550  1.2763277400417183 15.0000000000000000   F   F   F
  6.3816387002085921  1.2763277400417183 15.0000000000000000   F   F   F
  8.9342941802920279  1.2763277400417183 15.0000000000000000   F   F   F
  1.2763277400417183  3.8289832201251550 15.0000000000000000   F   F   F
  3.8289832201251550  3.8289832201251550 15.0000000000000000   F   F   F
  6.3816387002085921  3.8289832201251550 15.0000000000000000   F   F   F
  8.9342941802920279  3.8289832201251550 15.0000000000000000   F   F   F
  1.2763277400417183  6.3816387002085921 15.0000000000000000   F   F   F
  3.8289832201251550  6.3816387002085921 15.0000000000000000   F   F   F
  6.3816387002085921  6.3816387002085921 15.0000000000000000   F   F   F
  8.9342941802920279  6.3816387002085921 15.0000000000000000   F   F   F
  1.2763277400417183  8.9342941802920279 15.0000000000000000   F   F   F
  3.8289832201251550  8.9342941802920279 15.0000000000000000   F   F   F
  6.3816387002085921  8.9342941802920279 15.0000000000000000   F   F   F
  8.9342941802920279  8.9342941802920279 15.0000000000000000   F   F   F
  0.0000000000000000  0.0000000000000000 16.8049999999999997   F   F   F
  2.5526554800834367  0.0000000000000000 16.8049999999999997   F   F   F
  5.1053109601668734  0.0000000000000000 16.8049999999999997   F   F   F
  7.6579664402503100  0.0000000000000000 16.8049999999999997   F   F   F
  0.0000000000000000  2.5526554800834367 16.8049999999999997   F   F   F
  2.5526554800834367  2.5526554800834367 16.8049999999999997   F   F   F
  5.1053109601668734  2.5526554800834367 16.8049999999999997   F   F   F
  7.6579664402503100  2.5526554800834367 16.8049999999999997   F   F   F
  0.0000000000000000  5.1053109601668734 16.8049999999999997   F   F   F
  2.5526554800834367  5.1053109601668734 16.8049999999999997   F   F   F
  5.1053109601668734  5.1053109601668734 16.8049999999999997   F   F   F
  7.6579664402503100  5.1053109601668734 16.8049999999999997   F   F   F
  0.0000000000000000  7.6579664402503100 16.8049999999999997   F   F   F
  2.5526554800834367  7.6579664402503100 16.8049999999999997   F   F   F
  5.1053109601668734  7.6579664402503100 16.8049999999999997   F   F   F
  7.6579664402503100  7.6579664402503100 16.8049999999999997   F   F   F
  1.2748588122056346  1.2706227571056623 18.6268571151573248   T   T   T
  3.8472995292399390  1.2919996617474874 18.6610637244387441   T   T   T
  6.3665720434810611  1.2913343635277306 18.6601794807534489   T   T   T
  8.9347004234869285  1.2724501560145292 18.6291673187361120   T   T   T
  1.2743548240197593  3.8353050017323853 18.6254538407096000   T   T   T
  3.8492528237179910  3.8089438104881497 18.6599135274822032   T   T   T
  6.3649853286437494  3.8102544490092911 18.6621091444816543   T   T   T
  8.9345465359688028  3.8353403380822422 18.6288994854439132   T   T   T
  1.2759277804493721  6.3822286353179161 18.6371382139876189   T   T   T
  3.8234155758952433  6.3830400930319664 18.6260470918702836   T   T   T
  6.3866090622299199  6.3822850091724472 18.6275469851516817   T   T   T
  8.9370053449076057  6.3827707414175254 18.6361818253348552   T   T   T
  1.2752348040989399  8.9313787548845109 18.6362038792467608   T   T   T
  3.8224900898162439  8.9336294549030821 18.6291538626324673   T   T   T
  6.3857196170555692  8.9335059520456817 18.6290906264919656   T   T   T
  8.9380230531435494  8.9306248319727057 18.6333319498754193   T   T   T
  0.0001881081377828  0.0013432270253191 20.4147518171751052   T   T   T
  2.5502327946245034  0.0007908905981788 20.4105474283101351   T   T   T
  5.1031962032517333 10.1741530742450870 20.3935751397975729   T   T   T
  7.6634104089514059 10.2055369230423558 20.4039205242323227   T   T   T
  0.0029638756330063  2.5530775862488464 20.4124541534230310   T   T   T
  2.5176370286544842  2.5545676452940542 20.3911189164140971   T   T   T
  5.0925197128315052  2.5657000481501524 20.5711306351698902   T   T   T
  7.6931501815832339  2.5553018285544473 20.3947381241796926   T   T   T
  0.0041965796444468  5.1036975449153994 20.4163133001762525   T   T   T
  2.5594046567615951  5.0987076326816494 20.4128844580833224   T   T   T
  5.1033006908652476  5.1383854188397686 20.3954859029803579   T   T   T
  7.6574055819616396  5.1077553028341987 20.4099344258451190   T   T   T
 10.2102595315386786  7.6583222324891302 20.4165042675084685   T   T   T
  2.5543313631324236  7.6537099346788127 20.4165438806359347   T   T   T
  5.1047902284114102  7.6537978204769601 20.4128763015338635   T   T   T
  7.6565286211118027  7.6579597267325967 20.4146811232789638   T   T   T
  4.9527512293133613  2.5229470981145106 25.0128680894717306   T   T   T
  4.6968789551757775  2.8694966639727140 23.5923723914417707   T   T   T
  5.2786370637778077  2.3259874771217715 22.6322206332760985   T   T   T
  3.7771520295140659  3.8221592160336777 23.4473441027010132   T   T   T
  5.6966490704621959  1.7340673426070632 25.0922758236660179   T   T   T
  4.0099578746202402  2.2138172299938490 25.4749726589124386   T   T   T
  5.2864770037930988  3.4222039357430063 25.5400480035176969   T   T   T
  3.6610588806190028  3.9904479219926747 22.4698581887374154   T   T   T
