CH4_Au100
 1.0000000000000000
    11.5399826689644573    0.0000000000000000    0.0000000000000000
     0.0000000000000000   11.5399826689644573    0.0000000000000000
     0.0000000000000000    0.0000000000000000   36.1199999999999974
 Au  C   H  
  64   1   4
Selective dynamics
Cartesian
  1.4424978336205572  1.4424978336205572 14.9999999999999982   F   F   F
  4.3274935008616717  1.4424978336205572 14.9999999999999982   F   F   F
  7.2124891681027856  1.4424978336205572 14.9999999999999982   F   F   F
 10.0974848353439004  1.4424978336205572 14.9999999999999982   F   F   F
  1.4424978336205572  4.3274935008616717 14.9999999999999982   F   F   F
  4.3274935008616717  4.3274935008616717 14.9999999999999982   F   F   F
  7.2124891681027856  4.3274935008616717 14.9999999999999982   F   F   F
 10.0974848353439004  4.3274935008616717 14.9999999999999982   F   F   F
  1.4424978336205572  7.2124891681027856 14.9999999999999982   F   F   F
  4.3274935008616717  7.2124891681027856 14.9999999999999982   F   F   F
  7.2124891681027856  7.2124891681027856 14.9999999999999982   F   F   F
 10.0974848353439004  7.2124891681027856 14.9999999999999982   F   F   F
  1.4424978336205572 10.0974848353439004 14.9999999999999982   F   F   F
  4.3274935008616717 10.0974848353439004 14.9999999999999982   F   F   F
  7.2124891681027856 10.0974848353439004 14.9999999999999982   F   F   F
 10.0974848353439004 10.0974848353439004 14.9999999999999982   F   F   F
  0.0000000000000000  0.0000000000000000 17.0399999999999991   F   F   F
  2.8849956672411143  0.0000000000000000 17.0399999999999991   F   F   F
  5.7699913344822287  0.0000000000000000 17.0399999999999991   F   F   F
  8.6549870017233435  0.0000000000000000 17.0399999999999991   F   F   F
  0.0000000000000000  2.8849956672411143 17.0399999999999991   F   F   F
  2.8849956672411143  2.8849956672411143 17.0399999999999991   F   F   F
  5.7699913344822287  2.8849956672411143 17.0399999999999991   F   F   F
  8.6549870017233435  2.8849956672411143 17.0399999999999991   F   F   F
  0.0000000000000000  5.7699913344822287 17.0399999999999991   F   F   F
  2.8849956672411143  5.7699913344822287 17.0399999999999991   F   F   F
  5.7699913344822287  5.7699913344822287 17.0399999999999991   F   F   F
  8.6549870017233435  5.7699913344822287 17.0399999999999991   F   F   F
  0.0000000000000000  8.6549870017233435 17.0399999999999991   F   F   F
  2.8849956672411143  8.6549870017233435 17.0399999999999991   F   F   F
  5.7699913344822287  8.6549870017233435 17.0399999999999991   F   F   F
  8.6549870017233435  8.6549870017233435 17.0399999999999991   F   F   F
  1.4427642069034643  1.4427135014326893 19.1850163220023937   T   T   T
  4.3268781300475316  1.4431598300524158 19.1842918989206588   T   T   T
  7.2130837473485458  1.4431345640237403 19.1842937118207466   T   T   T
 10.0972310273147965  1.4427230666482338 19.1850476965842525   T   T   T
  1.4431252296957053  4.3270285143222580 19.1843993263038257   T   T   T
  4.3284857309950615  4.3281291567570728 19.1893479249830392   T   T   T
  7.2114934080251256  4.3281158584829695 19.1890969019718369   T   T   T
 10.0968631142434599  4.3271452396248673 19.1844411973090629   T   T   T
  1.4428944564490280  7.2129465925182323 19.1843581721317875   T   T   T
  4.3281164876799787  7.2116040938369395 19.1871733472738839   T   T   T
  7.2119125534977160  7.2116091073462130 19.1870780798673870   T   T   T
 10.0970482193930806  7.2128381701467079 19.1844248839632350   T   T   T
  1.4427517082453190 10.0972772963222468 19.1851080195135033   T   T   T
  4.3273225199163372 10.0971162677065234 19.1845160883591568   T   T   T
  7.2126326528138796 10.0971231840553024 19.1845338346422842   T   T   T
 10.0972077774372799 10.0972437830918320 19.1851384752311311   T   T   T
  0.0000032662980147  0.0000830836739669 21.3085861698268459   T   T   T
  2.8854116408833619  0.0002932174794311 21.3083790933984538   T   T   T
  5.7699507499688973  0.0006228580564508 21.3090207462029220   T   T   T
  8.6545993923894891  0.0003160434092505 21.3083848059236054   T   T   T
  0.0000112744565976  2.8856526648649305 21.3082008259777673   T   T   T
  2.8869152490183367  2.8872538292608159 21.3084107907901057   T   T   T
  5.7700428196749716  2.8837884277784163 21.3023432883382959   T   T   T
  8.6529495142604453  2.8872507278153829 21.3085488543309083   T   T   T
  0.0000556354020109  5.7698027046043281 21.3088999201751115   T   T   T
  2.8840729101592788  5.7695402774535633 21.3035999690547406   T   T   T
  5.7699578008196131  5.7696755810716311 21.3000001902628249   T   T   T
  8.6557895675636232  5.7695051471704399 21.3042007912000990   T   T   T
 11.5399817110493412  8.6547886331748227 21.3084570399589737   T   T   T
  2.8870342109135771  8.6530859066270338 21.3091996252735925   T   T   T
  5.7700298900305489  8.6558166965420043 21.3056652239154936   T   T   T
  8.6527360197022727  8.6528998433869351 21.3095317868179315   T   T   T
  5.7152531342300197  5.3130592144455200 24.7421227608643548   T   T   T
  4.8359099542618349  5.8379821322327352 24.3534183150731032   T   T   T
  6.6281576282270036  5.8254809535180545 24.4200860423706274   T   T   T
  5.7216849874286755  4.2828148972608489 24.3709027667071645   T   T   T
  5.6730448882560554  5.3016294749248685 25.8372783362799545   T   T   T
