HCOOH_Ag100
 1.0000000000000000
     8.6762002051589384    0.0000000000000000    0.0000000000000000
     0.0000000000000000    8.6762002051589384    0.0000000000000000
     0.0000000000000000    0.0000000000000000   36.1349999999999980
 Ag  O   C   H  
  36   2   1   2
Selective dynamics
Cartesian
  1.4460333675264894  1.4460333675264894 15.0000000000000000   F   F   F
  4.3381001025794692  1.4460333675264894 15.0000000000000000   F   F   F
  7.2301668376324475  1.4460333675264894 15.0000000000000000   F   F   F
  1.4460333675264894  4.3381001025794692 15.0000000000000000   F   F   F
  4.3381001025794692  4.3381001025794692 15.0000000000000000   F   F   F
  7.2301668376324475  4.3381001025794692 15.0000000000000000   F   F   F
  1.4460333675264894  7.2301668376324475 15.0000000000000000   F   F   F
  4.3381001025794692  7.2301668376324475 15.0000000000000000   F   F   F
  7.2301668376324475  7.2301668376324475 15.0000000000000000   F   F   F
  0.0000000000000000  0.0000000000000000 17.0450000000000017   F   F   F
  2.8920667350529787  0.0000000000000000 17.0450000000000017   F   F   F
  5.7841334701059575  0.0000000000000000 17.0450000000000017   F   F   F
  0.0000000000000000  2.8920667350529787 17.0450000000000017   F   F   F
  2.8920667350529787  2.8920667350529787 17.0450000000000017   F   F   F
  5.7841334701059575  2.8920667350529787 17.0450000000000017   F   F   F
  0.0000000000000000  5.7841334701059575 17.0450000000000017   F   F   F
  2.8920667350529787  5.7841334701059575 17.0450000000000017   F   F   F
  5.7841334701059575  5.7841334701059575 17.0450000000000017   F   F   F
  1.4458833591724993  1.4422142396954989 19.1603414972307284   T   T   T
  4.3445544495785144  1.4500252323054352 19.1759020329781045   T   T   T
  7.2242894814192162  1.4519468303358924 19.1783529257852976   T   T   T
  1.4438153267884559  4.3426461628512394 19.1575956233518241   T   T   T
  4.3443480477785963  4.3309575274418863 19.1729541144651101   T   T   T
  7.2261165786925945  4.3315785174300645 19.1760688658091745   T   T   T
  1.4463301041897265  7.2297585984670105 19.1665331993033199   T   T   T
  4.3335337271762970  7.2325938255698556 19.1574389182483742   T   T   T
  7.2344962373528956  7.2310123945135985 19.1591228889740890   T   T   T
  0.0004018446914896  8.6754161768022371 21.2446877436004016   T   T   T
  2.8932671829794248  8.6748761922542847 21.2491589526052671   T   T   T
  5.7832412459290374  8.6654852114983587 21.2420396094495452   T   T   T
  0.0107988018163033  2.8928990731405739 21.2418453197696948   T   T   T
  2.8803609124847540  2.8933884748542420 21.2349621734019607   T   T   T
  5.7769841569108857  2.9011945907969632 21.2900735123130183   T   T   T
  0.0009752499942791  5.7827553717326303 21.2497234777755004   T   T   T
  2.8990053863702405  5.7781545728321184 21.2488554744728120   T   T   T
  5.7835008148179732  5.7966654984012633 21.2319867715186170   T   T   T
  4.3405470759814468  4.5125917595971359 24.3671117905468897   T   T   T
  5.8273605325022659  2.8378736169001795 23.9290758224570972   T   T   T
  5.1864183583130234  3.5381383913864366 24.7020690952954034   T   T   T
  4.3263318536869848  4.5648015044611423 23.3736620060345324   T   T   T
  5.2437634885249356  3.4323426747549082 25.7926222709452340   T   T   T
