CH3OCH3_Pd111
 1.0000000000000000
     8.2519361364470107    0.0000000000000000    0.0000000000000000
     4.1259680682235054    7.1463863245699208    0.0000000000000000
     0.0000000000000000    0.0000000000000000   36.7376776414429358
 Pd  C   O   H  
  36   2   1   6
Selective dynamics
Cartesian
  0.0000000000000000  0.0000000000000000 15.0000000000000000   F   F   F
  2.7506453788156700  0.0000000000000000 15.0000000000000000   F   F   F
  5.5012907576313399  0.0000000000000000 15.0000000000000000   F   F   F
  1.3753226894078350  2.3821287748566400 15.0000000000000000   F   F   F
  4.1259680682235054  2.3821287748566400 15.0000000000000000   F   F   F
  6.8766134470391753  2.3821287748566400 15.0000000000000000   F   F   F
  2.7506453788156700  4.7642575497132800 15.0000000000000000   F   F   F
  5.5012907576313399  4.7642575497132800 15.0000000000000000   F   F   F
  8.2519361364470107  4.7642575497132800 15.0000000000000000   F   F   F
  1.3753226894078350  0.7940429249522137 17.2458925471476441   F   F   F
  4.1259680682235045  0.7940429249522137 17.2458925471476441   F   F   F
  6.8766134470391744  0.7940429249522137 17.2458925471476441   F   F   F
  2.7506453788156700  3.1761716998088549 17.2458925471476441   F   F   F
  5.5012907576313399  3.1761716998088549 17.2458925471476441   F   F   F
  8.2519361364470090  3.1761716998088549 17.2458925471476441   F   F   F
  4.1259680682235054  5.5583004746654945 17.2458925471476441   F   F   F
  6.8766134470391753  5.5583004746654945 17.2458925471476441   F   F   F
  9.6272588258548453  5.5583004746654945 17.2458925471476441   F   F   F
  8.2625759383655097  1.5899749078589986 19.5259404968385830   T   T   T
  2.7597481085002586  1.5809350767752106 19.5587276029499222   T   T   T
  5.5101297157808560  1.5918745021676919 19.5234269565397547   T   T   T
  9.6349713770973811  3.9736621161583128 19.5208571286981858   T   T   T
  4.1377936658457672  3.9735864828718155 19.5217865558464254   T   T   T
  6.8859940332138034  3.9763814650395752 19.5280150928571494   T   T   T
 11.0135929904071634  6.3545360045169517 19.5188821168678110   T   T   T
  5.5193048051448299  6.3614612789472877 19.5572877759673602   T   T   T
  8.2528899383320127  6.3615911544355859 19.5556352053150100   T   T   T
  0.0098373332226232  0.0027628466635716 21.8346293025327611   T   T   T
  2.7738197634006658  0.0082165736420500 21.9186425164051535   T   T   T
  5.5370205857085262  0.0024360294978534 21.8212320302828147   T   T   T
  1.3915894828182571  2.3932823880752023 21.8295082792769115   T   T   T
  4.1553664088710178  2.3912686436975084 21.8271683476939202   T   T   T
  6.9005667107500299  2.3835981122686558 21.8235639484309765   T   T   T
  2.7740077999248536  4.7666037901447451 21.8263941545046407   T   T   T
  5.5212882910088421  4.7630416699772908 21.8390667400309333   T   T   T
  8.2768507014790380  4.7613576186286890 21.8362489147870100   T   T   T
  4.0713390779792267  0.2935019310045517 24.8431204401529655   T   T   T
  1.7115341105329360  0.6296976371410452 24.8808880729420387   T   T   T
  6.9320254629474363  7.0818072670985099 24.2624467073955792   T   T   T
  4.0844511825070278  0.0248828190179007 25.9103396396744152   T   T   T
  8.9783483128452897  6.8724688687757300 24.3208742692217079   T   T   T
  4.2645409534117942  1.3747118078471956 24.7380790683592267   T   T   T
  1.6547683829962572  0.3622859072130916 25.9467573848105459   T   T   T
  0.7909418153732082  0.3124315808830142 24.3770475144414540   T   T   T
  1.8302607001555069  1.7220153299876670 24.7847842971051335   T   T   T
