HCOOH_Pt111
 1.0000000000000000
     8.3155757467537992    0.0000000000000000    0.0000000000000000
     4.1577878733768987    7.2014998437825444    0.0000000000000000
     0.0000000000000000    0.0000000000000000   36.7896391656699961
 Pt  O   C   H  
  36   2   1   2
Selective dynamics
Cartesian
  0.0000000000000000  0.0000000000000000 15.0000000000000053   F   F   F
  2.7718585822512662  0.0000000000000000 15.0000000000000053   F   F   F
  5.5437171645025325  0.0000000000000000 15.0000000000000053   F   F   F
  1.3859292911256329  2.4004999479275146 15.0000000000000053   F   F   F
  4.1577878733768996  2.4004999479275146 15.0000000000000053   F   F   F
  6.9296464556281654  2.4004999479275146 15.0000000000000053   F   F   F
  2.7718585822512658  4.8009998958550293 15.0000000000000053   F   F   F
  5.5437171645025316  4.8009998958550293 15.0000000000000053   F   F   F
  8.3155757467537992  4.8009998958550293 15.0000000000000053   F   F   F
  1.3859292911256325  0.8001666493091718 17.2632130552233356   F   F   F
  4.1577878733768987  0.8001666493091718 17.2632130552233356   F   F   F
  6.9296464556281663  0.8001666493091718 17.2632130552233356   F   F   F
  2.7718585822512658  3.2006665972366872 17.2632130552233356   F   F   F
  5.5437171645025298  3.2006665972366872 17.2632130552233356   F   F   F
  8.3155757467537992  3.2006665972366872 17.2632130552233356   F   F   F
  4.1577878733768987  5.6011665451642010 17.2632130552233356   F   F   F
  6.9296464556281645  5.6011665451642010 17.2632130552233356   F   F   F
  9.7015050378794321  5.6011665451642010 17.2632130552233356   F   F   F
  8.3211589116254050  1.6085170026702529 19.5479098524123494   T   T   T
  2.7833374104697253  1.6044206920164628 19.5585620140538730   T   T   T
  5.5484902585868090  1.6101838099348535 19.5526076042702073   T   T   T
  9.7218776084418579  4.0106684665344332 19.5785290357677830   T   T   T
  4.1529687679714158  4.0101064093403496 19.5813508096131770   T   T   T
  6.9378857331747730  4.0016159745473781 19.5424148239024085   T   T   T
 11.0945387250037566  6.3994070487639751 19.5744979702006887   T   T   T
  5.5529546137888630  6.4088111930419522 19.5516176945677849   T   T   T
  8.3235892786434711  6.4058432174313928 19.5514930478230227   T   T   T
  0.0248790749916675  0.0173432895261451 21.8895946389175897   T   T   T
  2.7927960944651642  0.0093037708289279 21.9127010500383257   T   T   T
  5.5542319970385030  0.0200998230665841 21.8838674644210904   T   T   T
  1.3984022683241810  2.3957495321316280 21.8901928952859031   T   T   T
  4.1804450226270049  2.4071390751231694 21.9385320853171315   T   T   T
  6.9475310064433309  2.4081754564353344 21.9074099249343242   T   T   T
  2.8029257422011273  4.7916543507771436 21.9510299682832191   T   T   T
  5.5809944971254870  4.8114369052787387 21.8735330905295662   T   T   T
  8.3247789486549628  4.8073096781109008 21.8931564964282686   T   T   T
  3.9872903678313869  3.1005225635298239 24.8486482975217413   T   T   T
 11.1068670154262410  4.9417405985383045 24.1768093210901043   T   T   T
  3.3296084834030371  4.2044030584358758 25.0217506880405942   T   T   T
  4.0391223674525030  2.8662620429947694 23.7931056113641723   T   T   T
  3.2494062031851052  4.5071279348160260 26.0757962498658280   T   T   T
