N2_Pd110
 1.0000000000000000
    11.6699999999999999    0.0000000000000000    0.0000000000000000
     0.0000000000000000    5.5012907576313399    0.0000000000000000
     0.0000000000000000    0.0000000000000000   34.1259680682235071
 Pd  N  
  24   2
Selective dynamics
Cartesian
  1.9449999999999998  1.3753226894078348 14.9999999999999929   F   F   F
  5.8349999999999991  1.3753226894078348 14.9999999999999929   F   F   F
  9.7249999999999996  1.3753226894078348 14.9999999999999929   F   F   F
  1.9449999999999998  4.1259680682235054 14.9999999999999929   F   F   F
  5.8349999999999991  4.1259680682235054 14.9999999999999929   F   F   F
  9.7249999999999996  4.1259680682235054 14.9999999999999929   F   F   F
  0.0000000000000000  0.0000000000000000 16.3753226894078345   F   F   F
  3.8899999999999997  0.0000000000000000 16.3753226894078345   F   F   F
  7.7799999999999994  0.0000000000000000 16.3753226894078345   F   F   F
  0.0000000000000000  2.7506453788156695 16.3753226894078345   F   F   F
  3.8899999999999997  2.7506453788156695 16.3753226894078345   F   F   F
  7.7799999999999994  2.7506453788156695 16.3753226894078345   F   F   F
  1.9368625081359359  1.3728105655655305 17.8026861574658604   T   T   T
  5.8458290982448844  1.3713670505496565 17.8033349599105328   T   T   T
  9.7265060951626268  1.3733498942904105 17.8207403323964719   T   T   T
  1.9366461344250816  4.1290545209529057 17.8026533084775167   T   T   T
  5.8457918994370397  4.1297997806975024 17.8032007121025870   T   T   T
  9.7263853688923074  4.1280341972265617 17.8207257432546626   T   T   T
  0.0045594365418154  5.5009477837990080 19.1788388914800727   T   T   T
  3.8885664992683915  5.5012848900665619 19.1407789840581195   T   T   T
  7.7769479647029716  0.0000769773026243 19.1807365333640014   T   T   T
  0.0023211373880009  2.7506148085802775 19.1650953334646594   T   T   T
  3.8832705861532095  2.7508595223475707 19.2005387528061142   T   T   T
  7.7858262263763320  2.7507421673370915 19.1603582616927319   T   T   T
  4.0733282508111186  2.7939574850510489 21.1462420887005074   T   T   T
  4.1913562473077386  2.8502493665084905 22.2625296334213694   T   T   T
