H2CO_Pt110
 1.0000000000000000
    11.7599999999999998    0.0000000000000000    0.0000000000000000
     0.0000000000000000    5.5437171645025325    0.0000000000000000
     0.0000000000000000    0.0000000000000000   34.1577878733768969
 Pt  C   O   H  
  24   1   1   2
Selective dynamics
Cartesian
  1.9600000000000000  1.3859292911256331 14.9999999999999982   F   F   F
  5.8799999999999999  1.3859292911256331 14.9999999999999982   F   F   F
  9.8000000000000007  1.3859292911256331 14.9999999999999982   F   F   F
  1.9600000000000000  4.1577878733768996 14.9999999999999982   F   F   F
  5.8799999999999999  4.1577878733768996 14.9999999999999982   F   F   F
  9.8000000000000007  4.1577878733768996 14.9999999999999982   F   F   F
  0.0000000000000000  0.0000000000000000 16.3859292911256311   F   F   F
  3.9199999999999999  0.0000000000000000 16.3859292911256311   F   F   F
  7.8399999999999999  0.0000000000000000 16.3859292911256311   F   F   F
  0.0000000000000000  2.7718585822512662 16.3859292911256311   F   F   F
  3.9199999999999999  2.7718585822512662 16.3859292911256311   F   F   F
  7.8399999999999999  2.7718585822512662 16.3859292911256311   F   F   F
  1.9754253851611958  1.3879275219736145 17.8452753795514383   T   T   T
  5.8468814608704598  1.3966631916583887 17.8930140683008680   T   T   T
  9.8193863964611356  1.3936950327448316 17.9162432303524248   T   T   T
  1.9769618810052030  4.1588857283569780 17.8533744151001450   T   T   T
  5.8435935389932885  4.1605894485360242 17.8929979348867541   T   T   T
  9.8197627546969954  4.1632255086839978 17.9134451447853316   T   T   T
  0.0428505539457011  0.0037143093731879 19.1864144786584951   T   T   T
  3.8900492143373260  0.0082688858077531 19.1763150295560756   T   T   T
  7.8271388594496765  0.0091308653713650 19.1643492030655871   T   T   T
  0.0584106865565496  2.7757800158435835 19.1932702901323893   T   T   T
  3.8855663142167023  2.7803613091611110 19.3757380803667836   T   T   T
  7.8310834792682522  2.7819578784595280 19.1534248013201633   T   T   T
  4.7643727252830388  2.8385614179272594 21.1660227498245526   T   T   T
  4.8855975889152905  3.7806932858363758 21.9049003055037694   T   T   T
  2.5100497716926595  2.7967161611854285 20.1832028012272389   T   T   T
  5.1399070440308181  1.8073700313861789 21.4419014495678724   T   T   T
