CO2_Au111
 1.0000000000000000
    11.5399826689644573    0.0000000000000000    0.0000000000000000
     0.0000000000000000    9.9939181505553663    0.0000000000000000
     0.0000000000000000    0.0000000000000000   37.0667672948810178
 Au  O   C  
  64   2   1
Selective dynamics
Cartesian
  0.0000000000000000  0.0000000000000000 15.0000000000000000   F   F   F
  2.8849956672411143  0.0000000000000000 15.0000000000000000   F   F   F
  5.7699913344822287  0.0000000000000000 15.0000000000000000   F   F   F
  8.6549870017233435  0.0000000000000000 15.0000000000000000   F   F   F
  1.4424978336205572  2.4984795376388416 15.0000000000000000   F   F   F
  4.3274935008616717  2.4984795376388416 15.0000000000000000   F   F   F
  7.2124891681027856  2.4984795376388416 15.0000000000000000   F   F   F
 10.0974848353439004  2.4984795376388416 15.0000000000000000   F   F   F
  0.0000000000000000  4.9969590752776831 15.0000000000000000   F   F   F
  2.8849956672411143  4.9969590752776831 15.0000000000000000   F   F   F
  5.7699913344822287  4.9969590752776831 15.0000000000000000   F   F   F
  8.6549870017233435  4.9969590752776831 15.0000000000000000   F   F   F
  1.4424978336205572  7.4954386129165247 15.0000000000000000   F   F   F
  4.3274935008616717  7.4954386129165247 15.0000000000000000   F   F   F
  7.2124891681027856  7.4954386129165247 15.0000000000000000   F   F   F
 10.0974848353439004  7.4954386129165247 15.0000000000000000   F   F   F
  1.4424978336205572  0.8328265125462805 17.3555890982936738   F   F   F
  4.3274935008616717  0.8328265125462805 17.3555890982936738   F   F   F
  7.2124891681027856  0.8328265125462805 17.3555890982936738   F   F   F
 10.0974848353439004  0.8328265125462805 17.3555890982936738   F   F   F
  0.0000000000000000  3.3313060501851219 17.3555890982936738   F   F   F
  2.8849956672411143  3.3313060501851219 17.3555890982936738   F   F   F
  5.7699913344822287  3.3313060501851219 17.3555890982936738   F   F   F
  8.6549870017233435  3.3313060501851219 17.3555890982936738   F   F   F
  1.4424978336205572  5.8297855878239639 17.3555890982936738   F   F   F
  4.3274935008616717  5.8297855878239639 17.3555890982936738   F   F   F
  7.2124891681027856  5.8297855878239639 17.3555890982936738   F   F   F
 10.0974848353439004  5.8297855878239639 17.3555890982936738   F   F   F
  0.0000000000000000  8.3282651254628064 17.3555890982936738   F   F   F
  2.8849956672411143  8.3282651254628064 17.3555890982936738   F   F   F
  5.7699913344822287  8.3282651254628064 17.3555890982936738   F   F   F
  8.6549870017233435  8.3282651254628064 17.3555890982936738   F   F   F
 11.5399311478945741  1.6656585803490656 19.8058779949951820   T   T   T
  2.8851953437947553  1.6657609730477627 19.8063532295500124   T   T   T
  5.7699529853218774  1.6655033076998009 19.8071765504721107   T   T   T
  8.6547763939714688  1.6658367352489944 19.8068626971402431   T   T   T
  1.4427049261777480  4.1642292239195076 19.8062579403025403   T   T   T
  4.3272243972551276  4.1639880246279484 19.8068314816925550   T   T   T
  7.2125308571845244  4.1640221839031435 19.8074684354892412   T   T   T
 10.0972542181912406  4.1642747864494689 19.8065608746237025   T   T   T
  0.0001016826506867  6.6627381973060533 19.8058502231832314   T   T   T
  2.8849935722344693  6.6626292723039695 19.8069072423118939   T   T   T
  5.7700320715197266  6.6626745069513502 19.8073807835056144   T   T   T
  8.6549315951792973  6.6626137966725407 19.8066885572126132   T   T   T
  1.4424105657393360  9.1610640703996200 19.8059413526949619   T   T   T
  4.3276247776822983  9.1608645244103730 19.8066751544561512   T   T   T
  7.2124074508760092  9.1607316087180131 19.8065879096360895   T   T   T
 10.0974430362899881  9.1611011017721040 19.8060344849082135   T   T   T
 11.5397868711534368  0.0001006616157244 22.3152457613148663   T   T   T
  2.8858142788351540  9.9937275923863655 22.3155081938321551   T   T   T
  5.7701597783208838  9.9936112029681716 22.3165064490416398   T   T   T
  8.6538240244393148  0.0010663618029399 22.3161167783160721   T   T   T
  1.4429278017204688  2.4986242849010099 22.3156686042221324   T   T   T
  4.3276822688694683  2.4996321195103999 22.3147705320047471   T   T   T
  7.2124400441942562  2.4983232585985968 22.3114037597922668   T   T   T
 10.0965087427357751  2.4992266086343449 22.3158873943641396   T   T   T
 11.5399151436766925  4.9967508089505381 22.3156307209472153   T   T   T
  2.8866575313582765  4.9967041972775030 22.3159319781617143   T   T   T
  5.7698249221351006  4.9971621328010185 22.3079182598936754   T   T   T
  8.6541751376545193  4.9976918247675393 22.3142929479706140   T   T   T
  1.4438178932533157  7.4945975750086076 22.3162164520655288   T   T   T
  4.3279614267235385  7.4948161135428144 22.3131091951267173   T   T   T
  7.2123763021850742  7.4944383754149957 22.3146911962217800   T   T   T
 10.0970714394347567  7.4954053021470095 22.3156642943062700   T   T   T
  6.4945717969554000  3.8468519617560899 25.9160607410461665   T   T   T
  5.3844933777362387  5.9192529198468202 25.9914145886744024   T   T   T
  5.9390120286483796  4.8834753004748324 25.9434215220304942   T   T   T
