CH4_Pt100
 1.0000000000000000
     8.3155757467537992    0.0000000000000000    0.0000000000000000
     0.0000000000000000    8.3155757467537992    0.0000000000000000
     0.0000000000000000    0.0000000000000000   35.8800000000000026
 Pt  C   H  
  36   1   4
Selective dynamics
Cartesian
  1.3859292911256331  1.3859292911256331 15.0000000000000018   F   F   F
  4.1577878733768996  1.3859292911256331 15.0000000000000018   F   F   F
  6.9296464556281654  1.3859292911256331 15.0000000000000018   F   F   F
  1.3859292911256331  4.1577878733768996 15.0000000000000018   F   F   F
  4.1577878733768996  4.1577878733768996 15.0000000000000018   F   F   F
  6.9296464556281654  4.1577878733768996 15.0000000000000018   F   F   F
  1.3859292911256331  6.9296464556281654 15.0000000000000018   F   F   F
  4.1577878733768996  6.9296464556281654 15.0000000000000018   F   F   F
  6.9296464556281654  6.9296464556281654 15.0000000000000018   F   F   F
  0.0000000000000000  0.0000000000000000 16.9600000000000009   F   F   F
  2.7718585822512662  0.0000000000000000 16.9600000000000009   F   F   F
  5.5437171645025325  0.0000000000000000 16.9600000000000009   F   F   F
  0.0000000000000000  2.7718585822512662 16.9600000000000009   F   F   F
  2.7718585822512662  2.7718585822512662 16.9600000000000009   F   F   F
  5.5437171645025325  2.7718585822512662 16.9600000000000009   F   F   F
  0.0000000000000000  5.5437171645025325 16.9600000000000009   F   F   F
  2.7718585822512662  5.5437171645025325 16.9600000000000009   F   F   F
  5.5437171645025325  5.5437171645025325 16.9600000000000009   F   F   F
  1.3880056376158425  1.3879459455175562 18.9557398008473115   T   T   T
  4.1561954082997437  1.3877083800042254 18.9565846685127433   T   T   T
  6.9295902913184175  1.3851644042024871 18.9534184164782431   T   T   T
  1.3879549594700449  4.1559733453983077 18.9560297107511104   T   T   T
  4.1562398218203231  4.1562178988372436 18.9569037527492839   T   T   T
  6.9296081518409531  4.1582364327713721 18.9532858999361054   T   T   T
  1.3848400147481255  6.9296310960544112 18.9532744408422467   T   T   T
  4.1579859703849911  6.9297293835968343 18.9531785832176460   T   T   T
  6.9297491958927644  6.9296866190472448 18.9536125060751068   T   T   T
  0.0017492434859646  0.0019231167844985 20.9409592233680719   T   T   T
  2.7723159016006100  8.3134132381325010 20.9373896305384548   T   T   T
  5.5416975679934755  0.0019590038554939 20.9400880726572183   T   T   T
  8.3133656917326544  2.7720795237290470 20.9370971998924631   T   T   T
  2.7704557018012479  2.7711694092633885 20.9444492785579115   T   T   T
  5.5475280834128355  2.7720389291221603 20.9360614850556530   T   T   T
  0.0019402578175322  5.5415611706024759 20.9407705336400518   T   T   T
  2.7723205953460410  5.5466801433715327 20.9369685873446798   T   T   T
  5.5417225482764518  5.5416582293737537 20.9396575698079666   T   T   T
  3.0286548346554536  2.8792645469899618 23.9522978739205143   T   T   T
  4.0418087173470916  2.7438333801703738 23.5574477856482574   T   T   T
  2.6117629537125153  3.8269043943964318 23.5940682166612810   T   T   T
  3.0765211498859659  2.9041580745512166 25.0463940732800729   T   T   T
  2.3903646896339299  2.0449698105278125 23.6414762543321508   T   T   T
