CH4_Pd110
 1.0000000000000000
    11.6699999999999999    0.0000000000000000    0.0000000000000000
     0.0000000000000000    5.5012907576313399    0.0000000000000000
     0.0000000000000000    0.0000000000000000   34.1259680682235071
 Pd  C   H  
  24   1   4
Selective dynamics
Cartesian
  1.9449999999999998  1.3753226894078348 14.9999999999999929   F   F   F
  5.8349999999999991  1.3753226894078348 14.9999999999999929   F   F   F
  9.7249999999999996  1.3753226894078348 14.9999999999999929   F   F   F
  1.9449999999999998  4.1259680682235054 14.9999999999999929   F   F   F
  5.8349999999999991  4.1259680682235054 14.9999999999999929   F   F   F
  9.7249999999999996  4.1259680682235054 14.9999999999999929   F   F   F
  0.0000000000000000  0.0000000000000000 16.3753226894078345   F   F   F
  3.8899999999999997  0.0000000000000000 16.3753226894078345   F   F   F
  7.7799999999999994  0.0000000000000000 16.3753226894078345   F   F   F
  0.0000000000000000  2.7506453788156695 16.3753226894078345   F   F   F
  3.8899999999999997  2.7506453788156695 16.3753226894078345   F   F   F
  7.7799999999999994  2.7506453788156695 16.3753226894078345   F   F   F
  1.9454310516382878  1.3755055388802140 17.8208113987371490   T   T   T
  5.8368734530651265  1.3753464435063114 17.8194585198297197   T   T   T
  9.7250807222817741  1.3754419576523911 17.8230686852909486   T   T   T
  1.9457006094281490  4.1260360662518103 17.8217147113466545   T   T   T
  5.8357578174829063  4.1269094386836471 17.8240775526905217   T   T   T
  9.7251235809930776  4.1267312278659327 17.8227504884527939   T   T   T
  0.0027342036553395  5.5012391902497804 19.1709304820477691   T   T   T
  3.8893362974971137  5.4948901412092859 19.1576231506704850   T   T   T
  7.7764634843079188  0.0002329172047973 19.1703191063717142   T   T   T
  0.0027408714615285  2.7501715882824103 19.1667763449481434   T   T   T
  3.8860296397372460  2.7530124826396860 19.1794817951529453   T   T   T
  7.7782250280434377  2.7498746948337485 19.1657861931411375   T   T   T
  4.3901029291062148  2.1699338281892202 21.8804867812702177   T   T   T
  5.3023885200031433  2.5225703973424825 21.3800327282210674   T   T   T
  3.4790517898233313  2.6243016839144317 21.4455359729689548   T   T   T
  4.4348725882967823  2.4701339127766557 22.9345858703974308   T   T   T
  4.3330954761272444  1.0774125370166228 21.8134848130698948   T   T   T
