CH3_Ag111
 1.0000000000000000
     8.6762002051589384    0.0000000000000000    0.0000000000000000
     4.3381001025794710    7.5138097859873962    0.0000000000000000
     0.0000000000000000    0.0000000000000000   37.0840878029567094
 Ag  C   H  
  36   1   3
Selective dynamics
Cartesian
  0.0000000000000000  0.0000000000000000 14.9999999999999982   F   F   F
  2.8920667350529787  0.0000000000000000 14.9999999999999982   F   F   F
  5.7841334701059575  0.0000000000000000 14.9999999999999982   F   F   F
  1.4460333675264903  2.5046032619957987 14.9999999999999982   F   F   F
  4.3381001025794692  2.5046032619957987 14.9999999999999982   F   F   F
  7.2301668376324475  2.5046032619957987 14.9999999999999982   F   F   F
  2.8920667350529805  5.0092065239915975 14.9999999999999982   F   F   F
  5.7841334701059592  5.0092065239915975 14.9999999999999982   F   F   F
  8.6762002051589384  5.0092065239915975 14.9999999999999982   F   F   F
  1.4460333675264898  0.8348677539985995 17.3613626009855686   F   F   F
  4.3381001025794683  0.8348677539985995 17.3613626009855686   F   F   F
  7.2301668376324484  0.8348677539985995 17.3613626009855686   F   F   F
  2.8920667350529801  3.3394710159943979 17.3613626009855686   F   F   F
  5.7841334701059592  3.3394710159943979 17.3613626009855686   F   F   F
  8.6762002051589384  3.3394710159943979 17.3613626009855686   F   F   F
  4.3381001025794710  5.8440742779901944 17.3613626009855686   F   F   F
  7.2301668376324493  5.8440742779901944 17.3613626009855686   F   F   F
 10.1222335726854276  5.8440742779901944 17.3613626009855686   F   F   F
  8.6762447225142907  1.6631171992136884 19.7398733547490011   T   T   T
  2.9039586540791329  1.6765245472824573 19.7752769579797985   T   T   T
  5.7732317441022145  1.6763398154441187 19.7729857521248036   T   T   T
 10.1226850206260863  4.1745248961880117 19.7556646959460132   T   T   T
  4.3379069526067164  4.1623247507296437 19.7718167022007911   T   T   T
  7.2305377250416862  4.1740247653201745 19.7549132619654948   T   T   T
 11.5743059028219140  6.6823150217706084 19.7405591814788615   T   T   T
  5.7787086708452202  6.6830138715085488 19.7399149729912651   T   T   T
  8.6757957348316168  6.6792807565678265 19.7555590776535830   T   T   T
  0.0003456055059309  0.0004133704451447 22.1863495091577967   T   T   T
  7.2209174036337913  7.4985365236296504 22.1459754487301588   T   T   T
 10.1318180163068767  7.4975951933839529 22.1420558415926010   T   T   T
 10.1026789164172239  2.5046470107442333 22.1430804138442952   T   T   T
  4.3404674420830949  2.5076764547555892 22.2762572048273171   T   T   T
  7.2493876821689192  2.5041830759904755 22.1440943740481266   T   T   T
 11.5590332577039625  5.0264611830945629 22.1448178878635922   T   T   T
  5.7944735572104662  5.0274380099551577 22.1403883034770068   T   T   T
  8.6763608966949093  5.0094323496174358 22.1960884933324714   T   T   T
  4.3632401873697964  2.5302882221869551 24.4440219845814823   T   T   T
  5.2151463123290895  1.9164931941926706 24.7468889458848018   T   T   T
  3.4058519283452928  2.1050302784396582 24.7549743056014258   T   T   T
  4.4738348721549483  3.5770826142346213 24.7375343492294242   T   T   T
