SO2_Ag111
 1.0000000000000000
     8.6762002051589384    0.0000000000000000    0.0000000000000000
     4.3381001025794710    7.5138097859873962    0.0000000000000000
     0.0000000000000000    0.0000000000000000   37.0840878029567094
 Ag  S   O  
  36   1   2
Selective dynamics
Cartesian
  0.0000000000000000  0.0000000000000000 14.9999999999999982   F   F   F
  2.8920667350529787  0.0000000000000000 14.9999999999999982   F   F   F
  5.7841334701059575  0.0000000000000000 14.9999999999999982   F   F   F
  1.4460333675264903  2.5046032619957987 14.9999999999999982   F   F   F
  4.3381001025794692  2.5046032619957987 14.9999999999999982   F   F   F
  7.2301668376324475  2.5046032619957987 14.9999999999999982   F   F   F
  2.8920667350529805  5.0092065239915975 14.9999999999999982   F   F   F
  5.7841334701059592  5.0092065239915975 14.9999999999999982   F   F   F
  8.6762002051589384  5.0092065239915975 14.9999999999999982   F   F   F
  1.4460333675264898  0.8348677539985995 17.3613626009855686   F   F   F
  4.3381001025794683  0.8348677539985995 17.3613626009855686   F   F   F
  7.2301668376324484  0.8348677539985995 17.3613626009855686   F   F   F
  2.8920667350529801  3.3394710159943979 17.3613626009855686   F   F   F
  5.7841334701059592  3.3394710159943979 17.3613626009855686   F   F   F
  8.6762002051589384  3.3394710159943979 17.3613626009855686   F   F   F
  4.3381001025794710  5.8440742779901944 17.3613626009855686   F   F   F
  7.2301668376324493  5.8440742779901944 17.3613626009855686   F   F   F
 10.1222335726854276  5.8440742779901944 17.3613626009855686   F   F   F
  8.6770985432095831  1.6697445127151318 19.7596630050023307   T   T   T
  2.8950640823369587  1.6718054380660659 19.7747331267779707   T   T   T
  5.7825252720456293  1.6717887371152464 19.7746415831072788   T   T   T
 10.1244112108535749  4.1753702147323688 19.7719803325967014   T   T   T
  4.3384582154694300  4.1738410635635752 19.7857890808976933   T   T   T
  7.2291553416708672  4.1732163678366776 19.7668037256481668   T   T   T
 11.5695402379025971  6.6771385158116336 19.7726479622674809   T   T   T
  5.7823497515587485  6.6784372960374805 19.7673061070840781   T   T   T
  8.6753211373837669  6.6784833808809188 19.7654608720169556   T   T   T
  8.6753400641820928  0.0073918411242996 22.1772351071359992   T   T   T
  7.2283420450646751  7.5101757786412708 22.1866241535747513   T   T   T
 10.1205636656764781  7.5112219858733837 22.1809988485956602   T   T   T
 10.1171172643284706  2.5026286507621807 22.1826970313128875   T   T   T
  4.3329792207918825  2.4931197511668945 22.1851304029688698   T   T   T
  7.2386716284580555  2.5001208392358483 22.1746128420448443   T   T   T
 11.5569356272737416  5.0122620781995550 22.1832648146440832   T   T   T
  5.8047549561933449  5.0194816710578145 22.1782987435959775   T   T   T
  8.6734236768520301  5.0092977776411427 22.1884371969800505   T   T   T
  5.0371539096365945  4.4423693355988867 25.2348492123846455   T   T   T
  4.9341332505802580  3.0012526277281517 24.9784467346276884   T   T   T
  3.8163659564906860  5.2370272474942370 25.0818577349211225   T   T   T
