SO2_Cu100
 1.0000000000000000
    10.2106219203337467    0.0000000000000000    0.0000000000000000
     0.0000000000000000   10.2106219203337467    0.0000000000000000
     0.0000000000000000    0.0000000000000000   35.4149999999999991
 Cu  S   O  
  64   1   2
Selective dynamics
Cartesian
  1.2763277400417183  1.2763277400417183 15.0000000000000000   F   F   F
  3.8289832201251550  1.2763277400417183 15.0000000000000000   F   F   F
  6.3816387002085921  1.2763277400417183 15.0000000000000000   F   F   F
  8.9342941802920279  1.2763277400417183 15.0000000000000000   F   F   F
  1.2763277400417183  3.8289832201251550 15.0000000000000000   F   F   F
  3.8289832201251550  3.8289832201251550 15.0000000000000000   F   F   F
  6.3816387002085921  3.8289832201251550 15.0000000000000000   F   F   F
  8.9342941802920279  3.8289832201251550 15.0000000000000000   F   F   F
  1.2763277400417183  6.3816387002085921 15.0000000000000000   F   F   F
  3.8289832201251550  6.3816387002085921 15.0000000000000000   F   F   F
  6.3816387002085921  6.3816387002085921 15.0000000000000000   F   F   F
  8.9342941802920279  6.3816387002085921 15.0000000000000000   F   F   F
  1.2763277400417183  8.9342941802920279 15.0000000000000000   F   F   F
  3.8289832201251550  8.9342941802920279 15.0000000000000000   F   F   F
  6.3816387002085921  8.9342941802920279 15.0000000000000000   F   F   F
  8.9342941802920279  8.9342941802920279 15.0000000000000000   F   F   F
  0.0000000000000000  0.0000000000000000 16.8049999999999997   F   F   F
  2.5526554800834367  0.0000000000000000 16.8049999999999997   F   F   F
  5.1053109601668734  0.0000000000000000 16.8049999999999997   F   F   F
  7.6579664402503100  0.0000000000000000 16.8049999999999997   F   F   F
  0.0000000000000000  2.5526554800834367 16.8049999999999997   F   F   F
  2.5526554800834367  2.5526554800834367 16.8049999999999997   F   F   F
  5.1053109601668734  2.5526554800834367 16.8049999999999997   F   F   F
  7.6579664402503100  2.5526554800834367 16.8049999999999997   F   F   F
  0.0000000000000000  5.1053109601668734 16.8049999999999997   F   F   F
  2.5526554800834367  5.1053109601668734 16.8049999999999997   F   F   F
  5.1053109601668734  5.1053109601668734 16.8049999999999997   F   F   F
  7.6579664402503100  5.1053109601668734 16.8049999999999997   F   F   F
  0.0000000000000000  7.6579664402503100 16.8049999999999997   F   F   F
  2.5526554800834367  7.6579664402503100 16.8049999999999997   F   F   F
  5.1053109601668734  7.6579664402503100 16.8049999999999997   F   F   F
  7.6579664402503100  7.6579664402503100 16.8049999999999997   F   F   F
  1.2763398499877516  1.2761461115798300 18.6399721909709193   T   T   T
  3.8202286160760730  1.2638621254202187 18.6237612242126431   T   T   T
  6.3849830072769729  1.2694604849559639 18.6186726516370733   T   T   T
  8.9448006951167525  1.2801013363943772 18.6270552297767154   T   T   T
  1.2659546103933534  3.8204264067677447 18.6237810807046422   T   T   T
  3.8307817588525932  3.8288297342424800 18.6293862545229238   T   T   T
  6.3818765229465795  3.8493233077574223 18.6616504201014024   T   T   T
  8.9095827558043421  3.8440329647230977 18.6598854773399019   T   T   T
  1.2718699709579255  6.3851125556546000 18.6186611439960110   T   T   T
  3.8518162322010250  6.3812396705962620 18.6619210343368138   T   T   T
  6.3676786998166275  6.3653582999522369 18.6843575087227585   T   T   T
  8.9036287341645082  6.3696063908393690 18.6550226364710738   T   T   T
  1.2806202059207321  8.9446087058894364 18.6273165691231526   T   T   T
  3.8448409497334475  8.9076723669288000 18.6609339389927875   T   T   T
  6.3700120261298041  8.9016862280353219 18.6546402404800311   T   T   T
  8.9349130864820108  8.9341305161530880 18.6277592327230792   T   T   T
 10.2089743914997211 10.2084459642130465 20.4152520003190432   T   T   T
  2.5592507482006428 10.2085731233590309 20.4188923419351092   T   T   T
  5.1128542424223156  0.0170487008093365 20.4029667261879837   T   T   T
  7.6587237508234294  0.0070796812186329 20.4040954281979623   T   T   T
 10.2089992823258147  2.5589713651615669 20.4178913845605337   T   T   T
  2.5559583955561895  2.5554135161911438 20.4074106178817978   T   T   T
  5.1013329084755634  2.5058052405104108 20.4010035046545113   T   T   T
  7.6578403617788773  2.5127414153208658 20.4009873517280020   T   T   T
  0.0218002817778352  5.1125826877852081 20.4025314487437548   T   T   T
  2.5098886441496813  5.1011294139195629 20.4015681745780704   T   T   T
  5.0076387940594937  5.0048812907460025 20.4961069300511483   T   T   T
  7.7112025664115871  5.0799760158888239 20.5180157021249805   T   T   T
  0.0082018444731413  7.6581610961722850 20.4039958500480836   T   T   T
  2.5143031222144234  7.6576153256452235 20.4020531266720866   T   T   T
  5.0812483973793370  7.7066584334561030 20.5166676189681354   T   T   T
  7.7028627637149336  7.7017984148743110 20.4168390809519806   T   T   T
  5.7002891872287540  5.6973151425750048 22.5863009051515498   T   T   T
  7.2070206918101842  5.4095364964620760 22.4115110629623793   T   T   T
  5.4418371388117839  7.2093914177272058 22.4074845226508756   T   T   T
