HCOOH molecule | 5 atoms | 20x20x20 A box
   1.00000000000000
   20.0000000000000000    0.0000000000000000    0.0000000000000000
    0.0000000000000000   20.0000000000000000    0.0000000000000000
    0.0000000000000000    0.0000000000000000   20.0000000000000000
  O  C  H
  2  1  2
Cartesian
   10.7008861742641415    9.2407722283986793   10.0978164263287749
    9.3117050842944131   10.9820686142867618    9.8957968658732032
    9.4760230142143769    9.7839256660338680   10.0277601369613460
   11.3093878564752792   10.0052920357308111   10.0199584650822615
    8.6906121435247208    9.0179313857132382   10.1042031341267968
