CH3CH2OH_Ag100
 1.0000000000000000
    11.5682669402119185    0.0000000000000000    0.0000000000000000
     0.0000000000000000   11.5682669402119185    0.0000000000000000
     0.0000000000000000    0.0000000000000000   36.1349999999999980
 Ag  C   O   H  
  64   2   1   6
Selective dynamics
Cartesian
  1.4460333675264898  1.4460333675264898 15.0000000000000000   F   F   F
  4.3381001025794692  1.4460333675264898 15.0000000000000000   F   F   F
  7.2301668376324493  1.4460333675264898 15.0000000000000000   F   F   F
 10.1222335726854293  1.4460333675264898 15.0000000000000000   F   F   F
  1.4460333675264898  4.3381001025794692 15.0000000000000000   F   F   F
  4.3381001025794692  4.3381001025794692 15.0000000000000000   F   F   F
  7.2301668376324493  4.3381001025794692 15.0000000000000000   F   F   F
 10.1222335726854293  4.3381001025794692 15.0000000000000000   F   F   F
  1.4460333675264898  7.2301668376324493 15.0000000000000000   F   F   F
  4.3381001025794692  7.2301668376324493 15.0000000000000000   F   F   F
  7.2301668376324493  7.2301668376324493 15.0000000000000000   F   F   F
 10.1222335726854293  7.2301668376324493 15.0000000000000000   F   F   F
  1.4460333675264898 10.1222335726854293 15.0000000000000000   F   F   F
  4.3381001025794692 10.1222335726854293 15.0000000000000000   F   F   F
  7.2301668376324493 10.1222335726854293 15.0000000000000000   F   F   F
 10.1222335726854293 10.1222335726854293 15.0000000000000000   F   F   F
  0.0000000000000000  0.0000000000000000 17.0450000000000017   F   F   F
  2.8920667350529796  0.0000000000000000 17.0450000000000017   F   F   F
  5.7841334701059592  0.0000000000000000 17.0450000000000017   F   F   F
  8.6762002051589384  0.0000000000000000 17.0450000000000017   F   F   F
  0.0000000000000000  2.8920667350529796 17.0450000000000017   F   F   F
  2.8920667350529796  2.8920667350529796 17.0450000000000017   F   F   F
  5.7841334701059592  2.8920667350529796 17.0450000000000017   F   F   F
  8.6762002051589384  2.8920667350529796 17.0450000000000017   F   F   F
  0.0000000000000000  5.7841334701059592 17.0450000000000017   F   F   F
  2.8920667350529796  5.7841334701059592 17.0450000000000017   F   F   F
  5.7841334701059592  5.7841334701059592 17.0450000000000017   F   F   F
  8.6762002051589384  5.7841334701059592 17.0450000000000017   F   F   F
  0.0000000000000000  8.6762002051589384 17.0450000000000017   F   F   F
  2.8920667350529796  8.6762002051589384 17.0450000000000017   F   F   F
  5.7841334701059592  8.6762002051589384 17.0450000000000017   F   F   F
  8.6762002051589384  8.6762002051589384 17.0450000000000017   F   F   F
  1.4518735123228883  1.4529938658145367 19.1767390941696370   T   T   T
  4.3316255976485927  1.4520498154465977 19.1753684586055293   T   T   T
  7.2304899581197102  1.4424476708822118 19.1614456557664390   T   T   T
 10.1209286425722595  1.4424618589236609 19.1608943871094048   T   T   T
  1.4532796652511999  4.3360311823101769 19.1804832049064977   T   T   T
  4.3296005661109032  4.3361550298936038 19.1779670988237179   T   T   T
  7.2310685013265097  4.3390165740141624 19.1589037107097582   T   T   T
 10.1200533027931705  4.3392311172437399 19.1582519364018360   T   T   T
  1.4469399367965829  7.2267770430940796 19.1699542009148303   T   T   T
  4.3359192631647261  7.2277821585699993 19.1683870394253439   T   T   T
  7.2314526822246821  7.2335790036783978 19.1623370542893205   T   T   T
 10.1217386674142134  7.2323709497265876 19.1636312732980230   T   T   T
  1.4448719309674507 10.1236530922593122 19.1638398103612708   T   T   T
  4.3395067808133536 10.1232407742488348 19.1626983893848575   T   T   T
  7.2303467500566549 10.1223844563204448 19.1674404092629196   T   T   T
 10.1226261832461031 10.1221941813072753 19.1674710791214871   T   T   T
  0.0023989507644294  0.0029407323625700 21.2477006567252218   T   T   T
  2.8933527816408509 11.5621057410341397 21.2482688520154710   T   T   T
  5.7827283605258852  0.0009908774568771 21.2470196308515611   T   T   T
  8.6763945770668656  0.0011739332823560 21.2467629348646589   T   T   T
 11.5514430927194525  2.8918735867092646 21.2352120656918153   T   T   T
  2.8979302220082657  2.8822808870824610 21.2874538460601599   T   T   T
  5.7981434174629660  2.8925936126915550 21.2308879107369997   T   T   T
  8.6741313704379515  2.8932163255392465 21.2475059321689024   T   T   T
 11.5592674637719792  5.7819803654348343 21.2422996514926439   T   T   T
  2.8938647657189569  5.8008037801395878 21.2586612691278063   T   T   T
  5.7923808964635084  5.7855663277600362 21.2321222081556122   T   T   T
  8.6753507675811310  5.7830403154733165 21.2462906917819367   T   T   T
  0.0016156251080878  8.6749036257723589 21.2465952020606359   T   T   T
  2.8923383974317112  8.6827752327770966 21.2449703562236927   T   T   T
  5.7828163143792644  8.6772416656069034 21.2470346550993270   T   T   T
  8.6765375688220221  8.6756857577907915 21.2467270123725385   T   T   T
  4.4464628762690079  3.9516737470652079 25.2131445505008038   T   T   T
  2.9414785123449976  3.9481189890967618 25.1496778977980462   T   T   T
  2.5176072391321838  4.0846041345961819 23.7641043841683519   T   T   T
  4.8569487462341101  4.8752287369703726 24.7894903589794460   T   T   T
  4.7682841218184473  3.8827297418825069 26.2611584697740739   T   T   T
  4.8680387357922115  3.0984818051153233 24.6701976629887234   T   T   T
  2.5232405468384496  4.7819396180298712 25.7427765630191665   T   T   T
  2.5283817074839283  3.0129354469000411 25.5694646572616087   T   T   T
  1.5415749475237051  4.0855547006014046 23.7267557609228490   T   T   T
