H2O_Pd110
 1.0000000000000000
    11.6699999999999999    0.0000000000000000    0.0000000000000000
     0.0000000000000000    5.5012907576313399    0.0000000000000000
     0.0000000000000000    0.0000000000000000   34.1259680682235071
 Pd  O   H  
  24   1   2
Selective dynamics
Cartesian
  1.9449999999999998  1.3753226894078348 14.9999999999999929   F   F   F
  5.8349999999999991  1.3753226894078348 14.9999999999999929   F   F   F
  9.7249999999999996  1.3753226894078348 14.9999999999999929   F   F   F
  1.9449999999999998  4.1259680682235054 14.9999999999999929   F   F   F
  5.8349999999999991  4.1259680682235054 14.9999999999999929   F   F   F
  9.7249999999999996  4.1259680682235054 14.9999999999999929   F   F   F
  0.0000000000000000  0.0000000000000000 16.3753226894078345   F   F   F
  3.8899999999999997  0.0000000000000000 16.3753226894078345   F   F   F
  7.7799999999999994  0.0000000000000000 16.3753226894078345   F   F   F
  0.0000000000000000  2.7506453788156695 16.3753226894078345   F   F   F
  3.8899999999999997  2.7506453788156695 16.3753226894078345   F   F   F
  7.7799999999999994  2.7506453788156695 16.3753226894078345   F   F   F
  1.9429888379620408  1.3767240380284023 17.7979077067309106   T   T   T
  5.8316721629586885  1.3811258929448369 17.8258356954246793   T   T   T
  9.7316435840470596  1.3752120147307738 17.8257910016827417   T   T   T
  1.9440407675472031  4.1217854360282944 17.8000215662211154   T   T   T
  5.8336005018641997  4.1282023978813633 17.8306094589701054   T   T   T
  9.7339098013654901  4.1304556240967321 17.8236629854577195   T   T   T
  0.0213852844283327  5.4998509500535224 19.1705719808353230   T   T   T
  3.8636509045842464  0.0030946763394030 19.1524523330287728   T   T   T
  7.7760713385949289  0.0057843999884003 19.1642541656742367   T   T   T
  0.0178348399359917  2.7496608188312019 19.1722575616680153   T   T   T
  3.8067587531710383  2.7675096030057351 19.2155348126615770   T   T   T
  7.8053012349548876  2.7596787183229865 19.1581908072093903   T   T   T
  5.0039796022860159  2.6027446907321625 21.1189069725004224   T   T   T
  4.9709473459892282  1.6374431756707246 21.2878645626685419   T   T   T
  5.9151836690230359  2.7551755080883322 20.7577421452577475   T   T   T
