HCOOH_Au100
 1.0000000000000000
    11.5399826689644573    0.0000000000000000    0.0000000000000000
     0.0000000000000000   11.5399826689644573    0.0000000000000000
     0.0000000000000000    0.0000000000000000   36.1199999999999974
 Au  O   C   H  
  64   2   1   2
Selective dynamics
Cartesian
  1.4424978336205572  1.4424978336205572 14.9999999999999982   F   F   F
  4.3274935008616717  1.4424978336205572 14.9999999999999982   F   F   F
  7.2124891681027856  1.4424978336205572 14.9999999999999982   F   F   F
 10.0974848353439004  1.4424978336205572 14.9999999999999982   F   F   F
  1.4424978336205572  4.3274935008616717 14.9999999999999982   F   F   F
  4.3274935008616717  4.3274935008616717 14.9999999999999982   F   F   F
  7.2124891681027856  4.3274935008616717 14.9999999999999982   F   F   F
 10.0974848353439004  4.3274935008616717 14.9999999999999982   F   F   F
  1.4424978336205572  7.2124891681027856 14.9999999999999982   F   F   F
  4.3274935008616717  7.2124891681027856 14.9999999999999982   F   F   F
  7.2124891681027856  7.2124891681027856 14.9999999999999982   F   F   F
 10.0974848353439004  7.2124891681027856 14.9999999999999982   F   F   F
  1.4424978336205572 10.0974848353439004 14.9999999999999982   F   F   F
  4.3274935008616717 10.0974848353439004 14.9999999999999982   F   F   F
  7.2124891681027856 10.0974848353439004 14.9999999999999982   F   F   F
 10.0974848353439004 10.0974848353439004 14.9999999999999982   F   F   F
  0.0000000000000000  0.0000000000000000 17.0399999999999991   F   F   F
  2.8849956672411143  0.0000000000000000 17.0399999999999991   F   F   F
  5.7699913344822287  0.0000000000000000 17.0399999999999991   F   F   F
  8.6549870017233435  0.0000000000000000 17.0399999999999991   F   F   F
  0.0000000000000000  2.8849956672411143 17.0399999999999991   F   F   F
  2.8849956672411143  2.8849956672411143 17.0399999999999991   F   F   F
  5.7699913344822287  2.8849956672411143 17.0399999999999991   F   F   F
  8.6549870017233435  2.8849956672411143 17.0399999999999991   F   F   F
  0.0000000000000000  5.7699913344822287 17.0399999999999991   F   F   F
  2.8849956672411143  5.7699913344822287 17.0399999999999991   F   F   F
  5.7699913344822287  5.7699913344822287 17.0399999999999991   F   F   F
  8.6549870017233435  5.7699913344822287 17.0399999999999991   F   F   F
  0.0000000000000000  8.6549870017233435 17.0399999999999991   F   F   F
  2.8849956672411143  8.6549870017233435 17.0399999999999991   F   F   F
  5.7699913344822287  8.6549870017233435 17.0399999999999991   F   F   F
  8.6549870017233435  8.6549870017233435 17.0399999999999991   F   F   F
  1.4423771188745944  1.4421233799719917 19.1839354816810079   T   T   T
  4.3277822992866497  1.4420242435558943 19.1837991276124136   T   T   T
  7.2124799991929542  1.4428450263344410 19.1844249541559222   T   T   T
 10.0975805143060189  1.4426366657886884 19.1845111650667874   T   T   T
  1.4420387995337460  4.3277450203054766 19.1828161059757711   T   T   T
  4.3281978454097914  4.3269901523085439 19.1829264101789114   T   T   T
  7.2114969607482875  4.3280011132248379 19.1850550838293010   T   T   T
 10.0979698492855974  4.3277840336393192 19.1845715773220000   T   T   T
  1.4428790062333625  7.2154578788574693 19.1868573932029243   T   T   T
  4.3279999563402098  7.2158203039842732 19.1857244078932823   T   T   T
  7.2121354646870133  7.2116507039053035 19.1831558145970895   T   T   T
 10.0980918365221619  7.2116109913217343 19.1833178551460648   T   T   T
  1.4456973722118238 10.0945149725487138 19.1905954832778285   T   T   T
  4.3249895456030476 10.0954807856379176 19.1891671701893500   T   T   T
  7.2116133268121692 10.0977761511762587 19.1840009329415295   T   T   T
 10.0979889342958806 10.0980416945052625 19.1836149812438563   T   T   T
  0.0012896029937827 11.5394488065860017 21.3067902153401114   T   T   T
  2.8851540263681614  0.0045931891165666 21.3025740036279032   T   T   T
  5.7687908450986525  0.0003205055541278 21.3059430189981924   T   T   T
  8.6548937691513235 11.5397851822064421 21.3074384109136616   T   T   T
  0.0010716741539612  2.8853429801954755 21.3080634417330117   T   T   T
  2.8849073584017240  2.8832968739569291 21.3067629717766600   T   T   T
  5.7689222880480449  2.8853817324730526 21.3082186052407749   T   T   T
  8.6552125243128479  2.8851672726161555 21.3074026392115279   T   T   T
  0.0014398168069607  5.7718325967026134 21.3089757343650952   T   T   T
  2.8844229702556907  5.7635520842033650 21.2967166677314026   T   T   T
  5.7689870706296542  5.7721012869440607 21.3085562228041709   T   T   T
  8.6535011677549942  5.7701641011646432 21.3075137285100844   T   T   T
 11.5344571097098250  8.6547047605021827 21.3038476628154321   T   T   T
  2.8851379189396225  8.6521496664637034 21.3156232352218105   T   T   T
  5.7770410619067594  8.6547317794794871 21.3018516152438906   T   T   T
  8.6553645421404148  8.6546723562195140 21.3075171588388699   T   T   T
  3.3316537900934184  6.2571145261050676 24.6006488013153195   T   T   T
  3.0966053898453421  8.5278309671294021 24.4501475251957707   T   T   T
  3.2624898928091088  7.5045578823637076 25.0859425200922033   T   T   T
  3.2203446195312675  6.3264750917260733 23.6098436345039779   T   T   T
  3.3823365678854240  7.4760027569525445 26.1797492527859248   T   T   T
