SO2_Rh111
 1.0000000000000000
    10.7565083554097622    0.0000000000000000    0.0000000000000000
     0.0000000000000000    9.3154094918044255    0.0000000000000000
     0.0000000000000000    0.0000000000000000   36.5869892211844387
 Rh  S   O  
  64   1   2
Selective dynamics
Cartesian
  0.0000000000000000  0.0000000000000000 15.0000000000000000   F   F   F
  2.6891270888524406  0.0000000000000000 15.0000000000000000   F   F   F
  5.3782541777048811  0.0000000000000000 15.0000000000000000   F   F   F
  8.0673812665573212  0.0000000000000000 15.0000000000000000   F   F   F
  1.3445635444262203  2.3288523729511064 15.0000000000000000   F   F   F
  4.0336906332786606  2.3288523729511064 15.0000000000000000   F   F   F
  6.7228177221311016  2.3288523729511064 15.0000000000000000   F   F   F
  9.4119448109835417  2.3288523729511064 15.0000000000000000   F   F   F
  0.0000000000000000  4.6577047459022127 15.0000000000000000   F   F   F
  2.6891270888524406  4.6577047459022127 15.0000000000000000   F   F   F
  5.3782541777048811  4.6577047459022127 15.0000000000000000   F   F   F
  8.0673812665573212  4.6577047459022127 15.0000000000000000   F   F   F
  1.3445635444262203  6.9865571188533195 15.0000000000000000   F   F   F
  4.0336906332786606  6.9865571188533195 15.0000000000000000   F   F   F
  6.7228177221311016  6.9865571188533195 15.0000000000000000   F   F   F
  9.4119448109835417  6.9865571188533195 15.0000000000000000   F   F   F
  1.3445635444262203  0.7762841243170354 17.1956630737281486   F   F   F
  4.0336906332786606  0.7762841243170354 17.1956630737281486   F   F   F
  6.7228177221311016  0.7762841243170354 17.1956630737281486   F   F   F
  9.4119448109835417  0.7762841243170354 17.1956630737281486   F   F   F
  0.0000000000000000  3.1051364972681417 17.1956630737281486   F   F   F
  2.6891270888524406  3.1051364972681417 17.1956630737281486   F   F   F
  5.3782541777048811  3.1051364972681417 17.1956630737281486   F   F   F
  8.0673812665573212  3.1051364972681417 17.1956630737281486   F   F   F
  1.3445635444262203  5.4339888702192489 17.1956630737281486   F   F   F
  4.0336906332786606  5.4339888702192489 17.1956630737281486   F   F   F
  6.7228177221311016  5.4339888702192489 17.1956630737281486   F   F   F
  9.4119448109835417  5.4339888702192489 17.1956630737281486   F   F   F
  0.0000000000000000  7.7628412431703548 17.1956630737281486   F   F   F
  2.6891270888524406  7.7628412431703548 17.1956630737281486   F   F   F
  5.3782541777048811  7.7628412431703548 17.1956630737281486   F   F   F
  8.0673812665573212  7.7628412431703548 17.1956630737281486   F   F   F
 10.7564799895208960  1.5493213002326396 19.3982456964323511   T   T   T
  2.6917502399809154  1.5470078922807626 19.4033722755507334   T   T   T
  5.3773387975717641  1.5490621723670344 19.4013348278571094   T   T   T
  8.0609152800361930  1.5523634599655034 19.3984124282870987   T   T   T
  1.3466380705867877  3.8785933600111053 19.4015224916322744   T   T   T
  4.0356729977933732  3.8823355479043467 19.4153901889675140   T   T   T
  6.7166735977397352  3.8848896849002483 19.4134032382479305   T   T   T
  9.4089076906134732  3.8791179691651032 19.3987680170898393   T   T   T
  0.0019763175788115  6.2035363871865714 19.3968526895925670   T   T   T
  2.6971568049877019  6.2056117560760606 19.4153565945660596   T   T   T
  5.3766786946667322  6.2037137889332730 19.4222386082562117   T   T   T
  8.0554767830493539  6.2109052431658958 19.4258998564455858   T   T   T
  1.3467990140939963  8.5347455507834162 19.3980093248936605   T   T   T
  4.0370983045826625  8.5247619824923788 19.4118261715618843   T   T   T
  6.7223954861382991  8.5199544755988441 19.4261146459738399   T   T   T
  9.4097855319844843  8.5344234786679820 19.3973170955495000   T   T   T
 10.7557695547853189  9.3097864895599951 21.5891819380481920   T   T   T
  2.6823133560427332  9.2984496941323762 21.5924449807337275   T   T   T
  5.3770826474718589  0.0127727601019183 21.5736617344187849   T   T   T
  8.0852213876831414  0.0085043278259414 21.5833853784651168   T   T   T
  1.3334248120604981  2.3170189092782683 21.5871952567022447   T   T   T
  4.0238977219997647  2.3036199534890023 21.5921989249802380   T   T   T
  6.7198943333514034  2.3247755398651240 21.5928387863202893   T   T   T
  9.4123665198534372  2.3233207826291453 21.5884549057244008   T   T   T
 10.7508513766893348  4.6506746320842280 21.5855183970692508   T   T   T
  2.6516477074435936  4.6277534609982816 21.5735849567125477   T   T   T
  5.3691696953451817  4.6104961168160603 21.6728486743568247   T   T   T
  8.0821491765861317  4.6357015607898155 21.5794558824649343   T   T   T
  1.3342802656450790  6.9852962755380821 21.5891319220876952   T   T   T
  4.0040155270602558  6.9866839679143125 21.6845569468188906   T   T   T
  6.7640109418912555  7.0005008936489510 21.6352245738859850   T   T   T
  9.4332971454546222  6.9830424271207878 21.5826170373362451   T   T   T
  4.9323757799020322  5.9324502349150716 23.4278039196074950   T   T   T
  4.2511176401503006  5.5343034768788115 24.6593880343196297   T   T   T
  6.2402146119651984  6.6717790128436398 23.7289228629446427   T   T   T
