CO_Au100
 1.0000000000000000
    11.5399826689644573    0.0000000000000000    0.0000000000000000
     0.0000000000000000   11.5399826689644573    0.0000000000000000
     0.0000000000000000    0.0000000000000000   36.1199999999999974
 Au  O   C  
  64   1   1
Selective dynamics
Cartesian
  1.4424978336205572  1.4424978336205572 14.9999999999999982   F   F   F
  4.3274935008616717  1.4424978336205572 14.9999999999999982   F   F   F
  7.2124891681027856  1.4424978336205572 14.9999999999999982   F   F   F
 10.0974848353439004  1.4424978336205572 14.9999999999999982   F   F   F
  1.4424978336205572  4.3274935008616717 14.9999999999999982   F   F   F
  4.3274935008616717  4.3274935008616717 14.9999999999999982   F   F   F
  7.2124891681027856  4.3274935008616717 14.9999999999999982   F   F   F
 10.0974848353439004  4.3274935008616717 14.9999999999999982   F   F   F
  1.4424978336205572  7.2124891681027856 14.9999999999999982   F   F   F
  4.3274935008616717  7.2124891681027856 14.9999999999999982   F   F   F
  7.2124891681027856  7.2124891681027856 14.9999999999999982   F   F   F
 10.0974848353439004  7.2124891681027856 14.9999999999999982   F   F   F
  1.4424978336205572 10.0974848353439004 14.9999999999999982   F   F   F
  4.3274935008616717 10.0974848353439004 14.9999999999999982   F   F   F
  7.2124891681027856 10.0974848353439004 14.9999999999999982   F   F   F
 10.0974848353439004 10.0974848353439004 14.9999999999999982   F   F   F
  0.0000000000000000  0.0000000000000000 17.0399999999999991   F   F   F
  2.8849956672411143  0.0000000000000000 17.0399999999999991   F   F   F
  5.7699913344822287  0.0000000000000000 17.0399999999999991   F   F   F
  8.6549870017233435  0.0000000000000000 17.0399999999999991   F   F   F
  0.0000000000000000  2.8849956672411143 17.0399999999999991   F   F   F
  2.8849956672411143  2.8849956672411143 17.0399999999999991   F   F   F
  5.7699913344822287  2.8849956672411143 17.0399999999999991   F   F   F
  8.6549870017233435  2.8849956672411143 17.0399999999999991   F   F   F
  0.0000000000000000  5.7699913344822287 17.0399999999999991   F   F   F
  2.8849956672411143  5.7699913344822287 17.0399999999999991   F   F   F
  5.7699913344822287  5.7699913344822287 17.0399999999999991   F   F   F
  8.6549870017233435  5.7699913344822287 17.0399999999999991   F   F   F
  0.0000000000000000  8.6549870017233435 17.0399999999999991   F   F   F
  2.8849956672411143  8.6549870017233435 17.0399999999999991   F   F   F
  5.7699913344822287  8.6549870017233435 17.0399999999999991   F   F   F
  8.6549870017233435  8.6549870017233435 17.0399999999999991   F   F   F
  1.4332207780388997  1.4430986720982686 19.1687639013833326   T   T   T
  4.3281741326761898  1.4444980634615647 19.1742903424281543   T   T   T
  7.2213364139319536  1.4445833431254955 19.1694169608720486   T   T   T
 10.0973133951348970  1.4415729622921276 19.1823834709824972   T   T   T
  1.4592690231606036  4.3384983130887100 19.2047810387244660   T   T   T
  4.3278765593471826  4.3420677506979404 19.1912893833604628   T   T   T
  7.1915122160453286  4.3408460892289122 19.2102329349523373   T   T   T
 10.0955515068540240  4.3226719092155763 19.1670319096352806   T   T   T
  1.4587442950090168  7.2036023741529895 19.2030936827374035   T   T   T
  4.3275381666547243  7.2015372651016145 19.1871661830081521   T   T   T
  7.1916198346184732  7.2011601743270504 19.2084746110806108   T   T   T
 10.0953292669360479  7.2177131224436168 19.1684065239548929   T   T   T
  1.4309538827927477 10.1005465018260203 19.1664685149168221   T   T   T
  4.3281965772467705 10.1001206730965585 19.1718134580315009   T   T   T
  7.2234823258680558 10.0987093208427581 19.1672192637588275   T   T   T
 10.0970579255778183 10.0974752799246001 19.1839172666776321   T   T   T
  0.0013655892459212 11.5395074733016312 21.3046365766484840   T   T   T
  2.8840675526743706  0.0026456800442651 21.3076622065737915   T   T   T
  5.7714091575042339  0.0028975417843926 21.3067723150604600   T   T   T
  8.6534953027319457 11.5390873795781062 21.3044044253960401   T   T   T
 11.5340838680132887  2.8845345684341370 21.3083908933338719   T   T   T
  2.8758803667964563  2.8477080810630220 21.2881666324128886   T   T   T
  5.7786466755694397  2.8517159381511012 21.2907388870977492   T   T   T
  8.6627350153019798  2.8834244175120962 21.3073360297064127   T   T   T
 11.4912482461767880  5.7697374817889155 21.3137750804095703   T   T   T
  2.7572631798048275  5.7681103890920014 21.3992488009310833   T   T   T
  5.8806405980351384  5.7709816278260515 21.4279101424735146   T   T   T
  8.6838991052727703  5.7693696534121139 21.3156930764874879   T   T   T
 11.5339689574774020  8.6540803399374493 21.3104718359446323   T   T   T
  2.8726917733548927  8.7000740156530938 21.2793531132445750   T   T   T
  5.7808751340308513  8.6975046433368313 21.2831615684169044   T   T   T
  8.6606154440663659  8.6539456747540839 21.3106466434328645   T   T   T
  4.2823920231255412  5.9725161793221764 24.0256374358197959   T   T   T
  4.3011660597317940  5.8762077479127326 22.8549308554007524   T   T   T
