CH3_Au110
 1.0000000000000000
    16.3200000000000003    0.0000000000000000    0.0000000000000000
     0.0000000000000000   11.5399826689644573    0.0000000000000000
     0.0000000000000000    0.0000000000000000   34.3274935008616708
 Au  C   H  
  64   1   3
Selective dynamics
Cartesian
  2.0400000000000000  1.4424978336205572 14.9999999999999964   F   F   F
  6.1200000000000001  1.4424978336205572 14.9999999999999964   F   F   F
 10.1999999999999922  1.4424978336205572 14.9999999999999964   F   F   F
 14.2800000000000011  1.4424978336205572 14.9999999999999964   F   F   F
  2.0400000000000000  4.3274935008616717 14.9999999999999964   F   F   F
  6.1200000000000001  4.3274935008616717 14.9999999999999964   F   F   F
 10.1999999999999922  4.3274935008616717 14.9999999999999964   F   F   F
 14.2800000000000011  4.3274935008616717 14.9999999999999964   F   F   F
  2.0400000000000000  7.2124891681027856 14.9999999999999964   F   F   F
  6.1200000000000001  7.2124891681027856 14.9999999999999964   F   F   F
 10.1999999999999922  7.2124891681027856 14.9999999999999964   F   F   F
 14.2800000000000011  7.2124891681027856 14.9999999999999964   F   F   F
  2.0400000000000000 10.0974848353439004 14.9999999999999964   F   F   F
  6.1200000000000001 10.0974848353439004 14.9999999999999964   F   F   F
 10.1999999999999922 10.0974848353439004 14.9999999999999964   F   F   F
 14.2800000000000011 10.0974848353439004 14.9999999999999964   F   F   F
  0.0000000000000000  0.0000000000000000 16.4424978336205569   F   F   F
  4.0800000000000001  0.0000000000000000 16.4424978336205569   F   F   F
  8.1600000000000001  0.0000000000000000 16.4424978336205569   F   F   F
 12.2400000000000002  0.0000000000000000 16.4424978336205569   F   F   F
  0.0000000000000000  2.8849956672411143 16.4424978336205569   F   F   F
  4.0800000000000001  2.8849956672411143 16.4424978336205569   F   F   F
  8.1600000000000001  2.8849956672411143 16.4424978336205569   F   F   F
 12.2400000000000002  2.8849956672411143 16.4424978336205569   F   F   F
  0.0000000000000000  5.7699913344822287 16.4424978336205569   F   F   F
  4.0800000000000001  5.7699913344822287 16.4424978336205569   F   F   F
  8.1600000000000001  5.7699913344822287 16.4424978336205569   F   F   F
 12.2400000000000002  5.7699913344822287 16.4424978336205569   F   F   F
  0.0000000000000000  8.6549870017233435 16.4424978336205569   F   F   F
  4.0800000000000001  8.6549870017233435 16.4424978336205569   F   F   F
  8.1600000000000001  8.6549870017233435 16.4424978336205569   F   F   F
 12.2400000000000002  8.6549870017233435 16.4424978336205569   F   F   F
  2.0386144855405983  1.4446933044360446 18.0665526619337875   T   T   T
  6.1045332251530793  1.4430154064453566 18.0714040220460177   T   T   T
 10.2194869797794805  1.4413313340540186 18.0648382683159276   T   T   T
 14.2774023457907617  1.4468788265917096 18.0682491670177221   T   T   T
  2.0375798011156334  4.3286877030879811 18.0643808191366979   T   T   T
  6.1325677242487870  4.3281183518479569 18.0407207859408594   T   T   T
 10.1849713346750299  4.3263193754113685 18.0324849087684562   T   T   T
 14.2751904779802015  4.3305675773708199 18.0711548615994353   T   T   T
  2.0378374741146859  7.2119665070932353 18.0647241920892370   T   T   T
  6.1339671949880357  7.2127711794839069 18.0406295234826679   T   T   T
 10.1784141000139190  7.2107678909502164 18.0380350190980323   T   T   T
 14.2747879207612804  7.2098833172888170 18.0714508114556587   T   T   T
  2.0399683190701836 10.0942533611970919 18.0679902085864086   T   T   T
  6.1040332693957495 10.1009090290611780 18.0723576450175472   T   T   T
 10.2178422399829376 10.0993227207372183 18.0656036292018847   T   T   T
 14.2767450857857696 10.0926114861761409 18.0685245748323204   T   T   T
 16.3178880740880103 11.5395031377815194 19.4042094655600970   T   T   T
  4.0646131736320141  0.0012800834210419 19.4145381570572724   T   T   T
  8.1598935158052566  0.0026648206499398 19.3873788977553687   T   T   T
 12.2544399019923453 11.5397866454960383 19.4176421046111116   T   T   T
 16.3186574969635281  2.8869092261753520 19.4076775511476249   T   T   T
  4.0846685159887004  2.8990907158678878 19.4002787486117825   T   T   T
  8.1669063111802718  2.8497022285998659 19.3826220770140019   T   T   T
 12.2231661513057279  2.9013337118988685 19.4005502666378149   T   T   T
 16.3187561459588402  5.7702382002847452 19.4083426611387324   T   T   T
  4.0941948025284471  5.7716432493441809 19.3861846380550773   T   T   T
  8.1784152138901103  5.7636795333652158 19.5260562487193035   T   T   T
 12.2106697988698016  5.7710067261394355 19.3901979121536918   T   T   T
 16.3183998958487742  8.6528548087286197 19.4079841805109474   T   T   T
  4.0880141438659781  8.6408914810514137 19.4013769385421604   T   T   T
  8.1630249237270309  8.6922065756577975 19.3816499537590516   T   T   T
 12.2195659849004237  8.6379077031789127 19.3987515028019573   T   T   T
  7.7469046892305107  5.6851250302481677 21.5655182398575391   T   T   T
  8.5215250651909837  5.0543829036185040 22.0112961043349706   T   T   T
  7.7930371045751334  6.7181901552306176 21.9223446258713821   T   T   T
  6.7450458618571671  5.2567898470487577 21.6693022604028727   T   T   T
