NH3_Cu110
 1.0000000000000000
    10.8300000000000001    0.0000000000000000    0.0000000000000000
     0.0000000000000000    5.1053109601668734    0.0000000000000000
     0.0000000000000000    0.0000000000000000   33.8289832201251528
 Cu  N   H  
  24   1   3
Selective dynamics
Cartesian
  1.8049999999999999  1.2763277400417183 14.9999999999999982   F   F   F
  5.4149999999999991  1.2763277400417183 14.9999999999999982   F   F   F
  9.0249999999999986  1.2763277400417183 14.9999999999999982   F   F   F
  1.8049999999999999  3.8289832201251550 14.9999999999999982   F   F   F
  5.4149999999999991  3.8289832201251550 14.9999999999999982   F   F   F
  9.0249999999999986  3.8289832201251550 14.9999999999999982   F   F   F
  0.0000000000000000  0.0000000000000000 16.2763277400417152   F   F   F
  3.6099999999999999  0.0000000000000000 16.2763277400417152   F   F   F
  7.2199999999999998  0.0000000000000000 16.2763277400417152   F   F   F
  0.0000000000000000  2.5526554800834367 16.2763277400417152   F   F   F
  3.6099999999999999  2.5526554800834367 16.2763277400417152   F   F   F
  7.2199999999999998  2.5526554800834367 16.2763277400417152   F   F   F
  1.8082620151059723  1.2860705121101657 17.5969749017096824   T   T   T
  5.4099817958701220  1.2837657577468897 17.5995790865374673   T   T   T
  9.0262673522951911  1.2698176758588093 17.6137501617016987   T   T   T
  1.8069219540002939  3.8186867299014522 17.5953757826472312   T   T   T
  5.4112079518148741  3.8209763235471628 17.5980182220346677   T   T   T
  9.0264385918356513  3.8342263575036091 17.6137355108722353   T   T   T
  0.0203252626954709  5.1050476247602843 18.7761393744004366   T   T   T
  3.6029541555516373  5.1052251501066301 18.7144755451824985   T   T   T
  7.2021781250044379  5.1045995345544943 18.7748784115998717   T   T   T
 10.8226786285647592  2.5518650751471998 18.7710401338340134   T   T   T
  3.6090762982122699  2.5584509910775934 18.8819439440864194   T   T   T
  7.2297267333375315  2.5521479635720659 18.7690164725945081   T   T   T
  3.6803310019124953  2.5170735216358930 20.9363416208025725   T   T   T
  4.4828620759839284  1.9622174045222287 21.2440311627186986   T   T   T
  3.7639555568931615  3.4458420646081134 21.3588525552904471   T   T   T
  2.8327461366787001  2.0800405484466826 21.3067090528096195   T   T   T
