CH3OCH3_Ag111
 1.0000000000000000
     8.6762002051589384    0.0000000000000000    0.0000000000000000
     4.3381001025794710    7.5138097859873962    0.0000000000000000
     0.0000000000000000    0.0000000000000000   37.0840878029567094
 Ag  C   O   H  
  36   2   1   6
Selective dynamics
Cartesian
  0.0000000000000000  0.0000000000000000 14.9999999999999982   F   F   F
  2.8920667350529787  0.0000000000000000 14.9999999999999982   F   F   F
  5.7841334701059575  0.0000000000000000 14.9999999999999982   F   F   F
  1.4460333675264903  2.5046032619957987 14.9999999999999982   F   F   F
  4.3381001025794692  2.5046032619957987 14.9999999999999982   F   F   F
  7.2301668376324475  2.5046032619957987 14.9999999999999982   F   F   F
  2.8920667350529805  5.0092065239915975 14.9999999999999982   F   F   F
  5.7841334701059592  5.0092065239915975 14.9999999999999982   F   F   F
  8.6762002051589384  5.0092065239915975 14.9999999999999982   F   F   F
  1.4460333675264898  0.8348677539985995 17.3613626009855686   F   F   F
  4.3381001025794683  0.8348677539985995 17.3613626009855686   F   F   F
  7.2301668376324484  0.8348677539985995 17.3613626009855686   F   F   F
  2.8920667350529801  3.3394710159943979 17.3613626009855686   F   F   F
  5.7841334701059592  3.3394710159943979 17.3613626009855686   F   F   F
  8.6762002051589384  3.3394710159943979 17.3613626009855686   F   F   F
  4.3381001025794710  5.8440742779901944 17.3613626009855686   F   F   F
  7.2301668376324493  5.8440742779901944 17.3613626009855686   F   F   F
 10.1222335726854276  5.8440742779901944 17.3613626009855686   F   F   F
  8.6762572521137304  1.6696729389049361 19.7673802785944162   T   T   T
  2.8933795070606267  1.6706117202488995 19.7713006805751697   T   T   T
  5.7822468798294286  1.6706431428456685 19.7716823085276090   T   T   T
 10.1220959008625506  4.1743159558905081 19.7670328847864738   T   T   T
  4.3380005394852432  4.1727815406405009 19.7713028183204891   T   T   T
  7.2300882016420607  4.1742330852371063 19.7683261880612520   T   T   T
 11.5683294247389803  6.6790596056436815 19.7668897875591760   T   T   T
  5.7839349090972556  6.6789823604922320 19.7670894907412347   T   T   T
  8.6762818484669584  6.6790430256395501 19.7677604304198304   T   T   T
 13.0141678648394095  7.5136624476539922 22.1854963087586583   T   T   T
  2.8922158695200744  0.0000189406681560 22.1852938961027100   T   T   T
 10.1229790963266542  7.5125680059064726 22.1821955326482687   T   T   T
  1.4461220496175575  2.5045097546740300 22.1848018938746776   T   T   T
  4.3382493430849118  2.5043353973532958 22.1932529288758680   T   T   T
  7.2316634176427490  2.5048100643571747 22.1829244302302975   T   T   T
 11.5684541109319454  5.0097448233061828 22.1819822464654202   T   T   T
  5.7843496838936943  5.0093170329255550 22.1858540016269359   T   T   T
  8.6772909227948158  5.0093967512001196 22.1873564924559972   T   T   T
  3.5922013897672227  3.1125440369062889 26.4154268116820461   T   T   T
  5.4476232201403061  1.6445707871163757 26.4130535256419172   T   T   T
  4.5611868021873549  2.4313193903711832 25.6219165661859627   T   T   T
  4.0720080617387637  3.7344445569946245 27.1933657139519447   T   T   T
  3.0027411846439356  3.7601325772406691 25.7563900755591639   T   T   T
  2.9147853337298852  2.4014546377350019 26.9230393507674641   T   T   T
  5.9788782205384186  2.2632729748429337 27.1575284320562034   T   T   T
  6.1837272066331508  1.1809534067531691 25.7475973806561633   T   T   T
  4.9052680330345515  0.8544446353152558 26.9619318578030445   T   T   T
