C2H4_Cu100
 1.0000000000000000
    10.2106219203337467    0.0000000000000000    0.0000000000000000
     0.0000000000000000   10.2106219203337467    0.0000000000000000
     0.0000000000000000    0.0000000000000000   35.4149999999999991
 Cu  C   H  
  64   2   4
Selective dynamics
Cartesian
  1.2763277400417183  1.2763277400417183 15.0000000000000000   F   F   F
  3.8289832201251550  1.2763277400417183 15.0000000000000000   F   F   F
  6.3816387002085921  1.2763277400417183 15.0000000000000000   F   F   F
  8.9342941802920279  1.2763277400417183 15.0000000000000000   F   F   F
  1.2763277400417183  3.8289832201251550 15.0000000000000000   F   F   F
  3.8289832201251550  3.8289832201251550 15.0000000000000000   F   F   F
  6.3816387002085921  3.8289832201251550 15.0000000000000000   F   F   F
  8.9342941802920279  3.8289832201251550 15.0000000000000000   F   F   F
  1.2763277400417183  6.3816387002085921 15.0000000000000000   F   F   F
  3.8289832201251550  6.3816387002085921 15.0000000000000000   F   F   F
  6.3816387002085921  6.3816387002085921 15.0000000000000000   F   F   F
  8.9342941802920279  6.3816387002085921 15.0000000000000000   F   F   F
  1.2763277400417183  8.9342941802920279 15.0000000000000000   F   F   F
  3.8289832201251550  8.9342941802920279 15.0000000000000000   F   F   F
  6.3816387002085921  8.9342941802920279 15.0000000000000000   F   F   F
  8.9342941802920279  8.9342941802920279 15.0000000000000000   F   F   F
  0.0000000000000000  0.0000000000000000 16.8049999999999997   F   F   F
  2.5526554800834367  0.0000000000000000 16.8049999999999997   F   F   F
  5.1053109601668734  0.0000000000000000 16.8049999999999997   F   F   F
  7.6579664402503100  0.0000000000000000 16.8049999999999997   F   F   F
  0.0000000000000000  2.5526554800834367 16.8049999999999997   F   F   F
  2.5526554800834367  2.5526554800834367 16.8049999999999997   F   F   F
  5.1053109601668734  2.5526554800834367 16.8049999999999997   F   F   F
  7.6579664402503100  2.5526554800834367 16.8049999999999997   F   F   F
  0.0000000000000000  5.1053109601668734 16.8049999999999997   F   F   F
  2.5526554800834367  5.1053109601668734 16.8049999999999997   F   F   F
  5.1053109601668734  5.1053109601668734 16.8049999999999997   F   F   F
  7.6579664402503100  5.1053109601668734 16.8049999999999997   F   F   F
  0.0000000000000000  7.6579664402503100 16.8049999999999997   F   F   F
  2.5526554800834367  7.6579664402503100 16.8049999999999997   F   F   F
  5.1053109601668734  7.6579664402503100 16.8049999999999997   F   F   F
  7.6579664402503100  7.6579664402503100 16.8049999999999997   F   F   F
  1.2683153138351000  1.2726145601157255 18.6306662928106626   T   T   T
  3.8242728564385109  1.2778755524297067 18.6222491272609894   T   T   T
  6.3918701260412023  1.2781507835183457 18.6240343742931032   T   T   T
  8.9381548888457409  1.2743505985559973 18.6372977577038128   T   T   T
  1.2737167150437008  3.8338825365519940 18.6435433115274414   T   T   T
  3.8325569151475296  3.8521304415838711 18.6591971261772898   T   T   T
  6.3502491104463816  3.8534113258218787 18.6665253944664826   T   T   T
  8.9183244247249878  3.8292209972279476 18.6383136395300646   T   T   T
  1.2745492547034885  6.3776747463788341 18.6435212446689995   T   T   T
  3.8348175945856147  6.3643314688746155 18.6642874401915009   T   T   T
  6.3482032524459449  6.3625033508267874 18.6709572843534275   T   T   T
  8.9173617186950729  6.3812265840381013 18.6390780469665565   T   T   T
  1.2692018331903498  8.9383687091759700 18.6311567915460223   T   T   T
  3.8247561949204534  8.9383377054196238 18.6230368882970758   T   T   T
  6.3920740850444906  8.9366788042488654 18.6248915586653681   T   T   T
  8.9380586000013498  8.9353149842735391 18.6379644248563174   T   T   T
  0.0030035519147729 10.2105324596775198 20.4190977825195183   T   T   T
  2.5567893225202036  0.0017838278170061 20.4164636104350130   T   T   T
  5.1070158594585271  0.0075819051105382 20.4125726322367207   T   T   T
  7.6584725844655495 10.2105537515907052 20.4159503508566793   T   T   T
 10.2059549845663486  2.5541767653610457 20.4191736537023942   T   T   T
  2.5420959473737796  2.5285852104167392 20.3901310838739036   T   T   T
  5.1082934174445498  2.5051828844452899 20.3776455850353884   T   T   T
  7.6616833403458022  2.5461030068420571 20.4091935240982707   T   T   T
 10.1793670862906307  5.1054905773953525 20.4207590158849683   T   T   T
  2.5117446817812019  5.1070508684311324 20.4437740727639046   T   T   T
  5.0395409072965567  5.1043214413655038 20.6825637877219357   T   T   T
  7.6331818996704781  5.1050646977858971 20.4226533785245756   T   T   T
 10.2070578507038281  7.6567102678382568 20.4191416964871699   T   T   T
  2.5431069685427041  7.6853525801694413 20.3919904149601194   T   T   T
  5.1083203905590029  7.7188697528375032 20.3835969912688810   T   T   T
  7.6617912825715164  7.6646036998872820 20.4120644697570057   T   T   T
  3.9246358895080315  5.1082631769879585 22.6070661863408837   T   T   T
  5.3293397191799610  5.0443831740092531 22.7260182864389577   T   T   T
  3.3455727224599969  4.1974416021168093 22.7829688333105871   T   T   T
  3.4250775972396159  6.0619224135085581 22.7945480506845115   T   T   T
  5.8040782776821604  4.0938862642924194 22.9721138854994251   T   T   T
  5.8862853284313372  5.9441348221896266 22.9881572892147013   T   T   T
