CH3CHO_Pd100
 1.0000000000000000
     8.2519361364470107    0.0000000000000000    0.0000000000000000
     0.0000000000000000    8.2519361364470107    0.0000000000000000
     0.0000000000000000    0.0000000000000000   35.8350000000000009
 Pd  C   O   H  
  36   2   1   4
Selective dynamics
Cartesian
  1.3753226894078350  1.3753226894078350 15.0000000000000000   F   F   F
  4.1259680682235054  1.3753226894078350 15.0000000000000000   F   F   F
  6.8766134470391780  1.3753226894078350 15.0000000000000000   F   F   F
  1.3753226894078350  4.1259680682235054 15.0000000000000000   F   F   F
  4.1259680682235054  4.1259680682235054 15.0000000000000000   F   F   F
  6.8766134470391780  4.1259680682235054 15.0000000000000000   F   F   F
  1.3753226894078350  6.8766134470391780 15.0000000000000000   F   F   F
  4.1259680682235054  6.8766134470391780 15.0000000000000000   F   F   F
  6.8766134470391780  6.8766134470391780 15.0000000000000000   F   F   F
  0.0000000000000000  0.0000000000000000 16.9450000000000003   F   F   F
  2.7506453788156700  0.0000000000000000 16.9450000000000003   F   F   F
  5.5012907576313399  0.0000000000000000 16.9450000000000003   F   F   F
  0.0000000000000000  2.7506453788156700 16.9450000000000003   F   F   F
  2.7506453788156700  2.7506453788156700 16.9450000000000003   F   F   F
  5.5012907576313399  2.7506453788156700 16.9450000000000003   F   F   F
  0.0000000000000000  5.5012907576313399 16.9450000000000003   F   F   F
  2.7506453788156700  5.5012907576313399 16.9450000000000003   F   F   F
  5.5012907576313399  5.5012907576313399 16.9450000000000003   F   F   F
  1.3778876103385767  1.3727951315027027 18.9262735101666202   T   T   T
  4.1441362836461524  1.3934760911100070 18.9539944645554641   T   T   T
  6.8674593228896281  1.3838127206155846 18.9472480330608271   T   T   T
  1.3763775467166321  4.1258808048078963 18.9266856966295371   T   T   T
  4.1334338318277490  4.1196620289006427 18.9425801504905778   T   T   T
  6.8702746526154685  4.1208288335933121 18.9412709472854708   T   T   T
  1.3738653840074060  6.8755820603099007 18.9355945698702008   T   T   T
  4.1246130698012466  6.8839823733814285 18.9267474318873212   T   T   T
  6.8773514053160749  6.8799939665547267 18.9316905969403066   T   T   T
  0.0030966069653986  0.0008355781062565 20.9198715121235530   T   T   T
  2.7573953355901497  0.0040202385867076 20.9117904235480054   T   T   T
  5.5021945510301880  8.2372092570373390 20.9177782729311019   T   T   T
  0.0101598948932318  2.7460278517642549 20.8909808002937929   T   T   T
  2.7265022581198761  2.7559480710138664 20.9040391081401857   T   T   T
  5.4791179128317520  2.7403376821825760 21.0398612447413953   T   T   T
  0.0028977637046966  5.4967709745547984 20.9165518353894058   T   T   T
  2.7560484937645766  5.5007570800534147 20.9099911778104222   T   T   T
  5.4985864787130945  5.5147137619651545 20.8948152835978753   T   T   T
  3.7114543387325423  2.4913841592786086 24.0221233293163259   T   T   T
  5.1150289244791365  2.9600247025056818 24.0800334049783267   T   T   T
  5.8880968036617771  3.0961846331277156 23.1213834545670345   T   T   T
  3.0326028929155329  3.2700140226612637 24.4016559466629346   T   T   T
  3.4245746764465874  2.2280227567887581 22.9875633656299705   T   T   T
  3.5677246713601725  1.6178132036305120 24.6760233107815168   T   T   T
  5.5001772402955167  3.2213483062975716 25.0840004061843089   T   T   T
