CO2_Ag100
 1.0000000000000000
    11.5682669402119185    0.0000000000000000    0.0000000000000000
     0.0000000000000000   11.5682669402119185    0.0000000000000000
     0.0000000000000000    0.0000000000000000   36.1349999999999980
 Ag  O   C  
  64   2   1
Selective dynamics
Cartesian
  1.4460333675264898  1.4460333675264898 15.0000000000000000   F   F   F
  4.3381001025794692  1.4460333675264898 15.0000000000000000   F   F   F
  7.2301668376324493  1.4460333675264898 15.0000000000000000   F   F   F
 10.1222335726854293  1.4460333675264898 15.0000000000000000   F   F   F
  1.4460333675264898  4.3381001025794692 15.0000000000000000   F   F   F
  4.3381001025794692  4.3381001025794692 15.0000000000000000   F   F   F
  7.2301668376324493  4.3381001025794692 15.0000000000000000   F   F   F
 10.1222335726854293  4.3381001025794692 15.0000000000000000   F   F   F
  1.4460333675264898  7.2301668376324493 15.0000000000000000   F   F   F
  4.3381001025794692  7.2301668376324493 15.0000000000000000   F   F   F
  7.2301668376324493  7.2301668376324493 15.0000000000000000   F   F   F
 10.1222335726854293  7.2301668376324493 15.0000000000000000   F   F   F
  1.4460333675264898 10.1222335726854293 15.0000000000000000   F   F   F
  4.3381001025794692 10.1222335726854293 15.0000000000000000   F   F   F
  7.2301668376324493 10.1222335726854293 15.0000000000000000   F   F   F
 10.1222335726854293 10.1222335726854293 15.0000000000000000   F   F   F
  0.0000000000000000  0.0000000000000000 17.0450000000000017   F   F   F
  2.8920667350529796  0.0000000000000000 17.0450000000000017   F   F   F
  5.7841334701059592  0.0000000000000000 17.0450000000000017   F   F   F
  8.6762002051589384  0.0000000000000000 17.0450000000000017   F   F   F
  0.0000000000000000  2.8920667350529796 17.0450000000000017   F   F   F
  2.8920667350529796  2.8920667350529796 17.0450000000000017   F   F   F
  5.7841334701059592  2.8920667350529796 17.0450000000000017   F   F   F
  8.6762002051589384  2.8920667350529796 17.0450000000000017   F   F   F
  0.0000000000000000  5.7841334701059592 17.0450000000000017   F   F   F
  2.8920667350529796  5.7841334701059592 17.0450000000000017   F   F   F
  5.7841334701059592  5.7841334701059592 17.0450000000000017   F   F   F
  8.6762002051589384  5.7841334701059592 17.0450000000000017   F   F   F
  0.0000000000000000  8.6762002051589384 17.0450000000000017   F   F   F
  2.8920667350529796  8.6762002051589384 17.0450000000000017   F   F   F
  5.7841334701059592  8.6762002051589384 17.0450000000000017   F   F   F
  8.6762002051589384  8.6762002051589384 17.0450000000000017   F   F   F
  1.4459285753522992  1.4458700277159278 19.1706100240237269   T   T   T
  4.3381715378009327  1.4459256401428315 19.1707848138651542   T   T   T
  7.2301709040720974  1.4460262194055986 19.1704917339897918   T   T   T
 10.1222221724645589  1.4460262621350084 19.1704839426667988   T   T   T
  1.4462194574736771  4.3381636995984731 19.1719207817224735   T   T   T
  4.3378911666691300  4.3381452047657012 19.1720021983062665   T   T   T
  7.2302897802973050  4.3380833997551216 19.1702534156788928   T   T   T
 10.1221139304862113  4.3380731626124653 19.1702589413633717   T   T   T
  1.4460840777078019  7.2301305410001131 19.1711870979312486   T   T   T
  4.3380533726369279  7.2301609039505612 19.1711066954363858   T   T   T
  7.2301834492652111  7.2301847020243954 19.1704636300630185   T   T   T
 10.1222267019158849  7.2301875055082192 19.1704729347205109   T   T   T
  1.4459675683012114 10.1222268655652385 19.1704712861467605   T   T   T
  4.3381664694422168 10.1222323582938110 19.1704731235649284   T   T   T
  7.2301728463714756 10.1222344207154435 19.1705558211024893   T   T   T
 10.1222290422249195 10.1222350907387071 19.1705575822510212   T   T   T
  0.0003466232859050  0.0003918526224907 21.2506615570417985   T   T   T
  2.8920603067766031 11.5681353029745040 21.2499025986626826   T   T   T
  5.7838101447855674  0.0003878527096848 21.2506562274972133   T   T   T
  8.6762005590381062 11.5682599393935330 21.2503664596846633   T   T   T
  0.0004698737989837  2.8925618059354168 21.2506238546712822   T   T   T
  2.8920132434118551  2.8919030470300089 21.2490385279016500   T   T   T
  5.7838009454212473  2.8925701557375874 21.2504529685677142   T   T   T
  8.6762033387966078  2.8920662765610237 21.2502458678950319   T   T   T
  0.0000064085978956  5.7836544517536748 21.2501661677143368   T   T   T
  2.8921238730109349  5.7842472128494782 21.2489617702275666   T   T   T
  5.7840301368174600  5.7836449107713017 21.2503012598360002   T   T   T
  8.6761966751368433  5.7841355979102778 21.2502545399500775   T   T   T
  0.0003406779044877  8.6757725014118119 21.2506519480152605   T   T   T
  2.8920740101852900  8.6765405288395474 21.2497072445045596   T   T   T
  5.7837852670576737  8.6757832068195473 21.2506387640336385   T   T   T
  8.6761999318424365  8.6762142813730687 21.2503678713983781   T   T   T
  2.9624426251671689  3.1115590677818132 24.7170359721276149   T   T   T
  2.8489944497386466  5.4573870059760781 24.5935855739247486   T   T   T
  2.9057267654448564  4.2837020373103210 24.6507309634488578   T   T   T
