NO_Au110
 1.0000000000000000
    16.3200000000000003    0.0000000000000000    0.0000000000000000
     0.0000000000000000   11.5399826689644573    0.0000000000000000
     0.0000000000000000    0.0000000000000000   34.3274935008616708
 Au  N   O  
  64   1   1
Selective dynamics
Cartesian
  2.0400000000000000  1.4424978336205572 14.9999999999999964   F   F   F
  6.1200000000000001  1.4424978336205572 14.9999999999999964   F   F   F
 10.1999999999999922  1.4424978336205572 14.9999999999999964   F   F   F
 14.2800000000000011  1.4424978336205572 14.9999999999999964   F   F   F
  2.0400000000000000  4.3274935008616717 14.9999999999999964   F   F   F
  6.1200000000000001  4.3274935008616717 14.9999999999999964   F   F   F
 10.1999999999999922  4.3274935008616717 14.9999999999999964   F   F   F
 14.2800000000000011  4.3274935008616717 14.9999999999999964   F   F   F
  2.0400000000000000  7.2124891681027856 14.9999999999999964   F   F   F
  6.1200000000000001  7.2124891681027856 14.9999999999999964   F   F   F
 10.1999999999999922  7.2124891681027856 14.9999999999999964   F   F   F
 14.2800000000000011  7.2124891681027856 14.9999999999999964   F   F   F
  2.0400000000000000 10.0974848353439004 14.9999999999999964   F   F   F
  6.1200000000000001 10.0974848353439004 14.9999999999999964   F   F   F
 10.1999999999999922 10.0974848353439004 14.9999999999999964   F   F   F
 14.2800000000000011 10.0974848353439004 14.9999999999999964   F   F   F
  0.0000000000000000  0.0000000000000000 16.4424978336205569   F   F   F
  4.0800000000000001  0.0000000000000000 16.4424978336205569   F   F   F
  8.1600000000000001  0.0000000000000000 16.4424978336205569   F   F   F
 12.2400000000000002  0.0000000000000000 16.4424978336205569   F   F   F
  0.0000000000000000  2.8849956672411143 16.4424978336205569   F   F   F
  4.0800000000000001  2.8849956672411143 16.4424978336205569   F   F   F
  8.1600000000000001  2.8849956672411143 16.4424978336205569   F   F   F
 12.2400000000000002  2.8849956672411143 16.4424978336205569   F   F   F
  0.0000000000000000  5.7699913344822287 16.4424978336205569   F   F   F
  4.0800000000000001  5.7699913344822287 16.4424978336205569   F   F   F
  8.1600000000000001  5.7699913344822287 16.4424978336205569   F   F   F
 12.2400000000000002  5.7699913344822287 16.4424978336205569   F   F   F
  0.0000000000000000  8.6549870017233435 16.4424978336205569   F   F   F
  4.0800000000000001  8.6549870017233435 16.4424978336205569   F   F   F
  8.1600000000000001  8.6549870017233435 16.4424978336205569   F   F   F
 12.2400000000000002  8.6549870017233435 16.4424978336205569   F   F   F
  2.0465498430957219  1.4444326483150816 18.0712301424212747   T   T   T
  6.1500822133611717  1.4496909073708342 18.0634963997386961   T   T   T
 10.1618814804158752  1.4437085774281979 18.0463479967487039   T   T   T
 14.2700557690187360  1.4457503414335273 18.0831462816601238   T   T   T
  2.0466125908218138  4.3258922543201832 18.0713320797232839   T   T   T
  6.1503179923856681  4.3212006193829513 18.0634834818808763   T   T   T
 10.1618323199797693  4.3270753937369264 18.0460441284981279   T   T   T
 14.2698259945289898  4.3240483650750772 18.0832612419827363   T   T   T
  2.0415338426260643  7.2110738533237475 18.0691056685851770   T   T   T
  6.1080986299073823  7.2122244784833462 18.0593644392621506   T   T   T
 10.2032057946519803  7.2123400405193712 18.0631359072046713   T   T   T
 14.2753711468045417  7.2073607242873905 18.0693649066113160   T   T   T
  2.0414119703098490 10.0989471634175185 18.0689489770354434   T   T   T
  6.1081527616355045 10.0988824923399854 18.0598444251101249   T   T   T
 10.2032973183940232 10.0984436677485760 18.0635573148086550   T   T   T
 14.2753660077444593 10.1024073867982711 18.0693592165298149   T   T   T
  0.0001354523382479  0.0028524823994264 19.4026409455941291   T   T   T
  4.0914706579825921  0.0064897726693423 19.4048753226022122   T   T   T
  8.1540093037058199 11.5015642659972688 19.4124154873857115   T   T   T
 12.2154987477216697  0.0040123538080492 19.4004135423150217   T   T   T
  0.0031264634918696  2.8849505610390120 19.4057241736963775   T   T   T
  4.0993572175144459  2.8852157393987587 19.4020331797983054   T   T   T
  8.1109418013595995  2.8857966794322749 19.5504144145589116   T   T   T
 12.2149995418510553  2.8848715167618755 19.3908360774618984   T   T   T
 16.3199690378511058  5.7669686750323335 19.4028367623932034   T   T   T
  4.0916769476017540  5.7644035197004495 19.4048558797648028   T   T   T
  8.1537662376753204  5.8098059039321983 19.4122262726115622   T   T   T
 12.2153816756594384  5.7660956214994403 19.4003212076415110   T   T   T
 16.3150638256773881  8.6548059552473084 19.3982563784314799   T   T   T
  4.0767254580906300  8.6556703478454349 19.4119484713654771   T   T   T
  8.1578306508014116  8.6557777588079343 19.4020258527564700   T   T   T
 12.2444261306544533  8.6550572732664524 19.4086734392195375   T   T   T
  8.9404415433747548  2.8864043272503834 21.4902979629380830   T   T   T
 10.1151585108615922  2.8865653720127127 21.6258655328351956   T   T   T
