H2CO_Ir111
 1.0000000000000000
    10.8611601590253706    0.0000000000000000    0.0000000000000000
     0.0000000000000000    9.4060406122874021    0.0000000000000000
     0.0000000000000000    0.0000000000000000   36.6510751010644924
 Ir  C   O   H  
  64   1   1   2
Selective dynamics
Cartesian
  0.0000000000000000  0.0000000000000000 15.0000000000000018   F   F   F
  2.7152900397563422  0.0000000000000000 15.0000000000000018   F   F   F
  5.4305800795126844  0.0000000000000000 15.0000000000000018   F   F   F
  8.1458701192690270  0.0000000000000000 15.0000000000000018   F   F   F
  1.3576450198781711  2.3515101530718505 15.0000000000000018   F   F   F
  4.0729350596345135  2.3515101530718505 15.0000000000000018   F   F   F
  6.7882250993908571  2.3515101530718505 15.0000000000000018   F   F   F
  9.5035151391471988  2.3515101530718505 15.0000000000000018   F   F   F
  0.0000000000000000  4.7030203061437010 15.0000000000000018   F   F   F
  2.7152900397563422  4.7030203061437010 15.0000000000000018   F   F   F
  5.4305800795126844  4.7030203061437010 15.0000000000000018   F   F   F
  8.1458701192690270  4.7030203061437010 15.0000000000000018   F   F   F
  1.3576450198781711  7.0545304592155516 15.0000000000000018   F   F   F
  4.0729350596345135  7.0545304592155516 15.0000000000000018   F   F   F
  6.7882250993908571  7.0545304592155516 15.0000000000000018   F   F   F
  9.5035151391471988  7.0545304592155516 15.0000000000000018   F   F   F
  1.3576450198781711  0.7838367176906168 17.2170250336881665   F   F   F
  4.0729350596345135  0.7838367176906168 17.2170250336881665   F   F   F
  6.7882250993908571  0.7838367176906168 17.2170250336881665   F   F   F
  9.5035151391471988  0.7838367176906168 17.2170250336881665   F   F   F
  0.0000000000000000  3.1353468707624672 17.2170250336881665   F   F   F
  2.7152900397563422  3.1353468707624672 17.2170250336881665   F   F   F
  5.4305800795126844  3.1353468707624672 17.2170250336881665   F   F   F
  8.1458701192690270  3.1353468707624672 17.2170250336881665   F   F   F
  1.3576450198781711  5.4868570238343182 17.2170250336881665   F   F   F
  4.0729350596345135  5.4868570238343182 17.2170250336881665   F   F   F
  6.7882250993908571  5.4868570238343182 17.2170250336881665   F   F   F
  9.5035151391471988  5.4868570238343182 17.2170250336881665   F   F   F
  0.0000000000000000  7.8383671769061687 17.2170250336881665   F   F   F
  2.7152900397563422  7.8383671769061687 17.2170250336881665   F   F   F
  5.4305800795126844  7.8383671769061687 17.2170250336881665   F   F   F
  8.1458701192690270  7.8383671769061687 17.2170250336881665   F   F   F
 10.8601056483691067  1.5644388265579299 19.4408335912385652   T   T   T
  2.7242776193153571  1.5728035727908958 19.4741185553484186   T   T   T
  5.4199864574792169  1.5748239035392397 19.4762413614505476   T   T   T
  8.1443175326201462  1.5654048242395888 19.4422604468321545   T   T   T
  1.3575089386947936  3.9184451575080033 19.4443017153898161   T   T   T
  4.0728627575352556  3.9096281397611330 19.4769899961079958   T   T   T
  6.7879196016459487  3.9189991711359022 19.4452421315328969   T   T   T
  9.5036728197195526  3.9193517655517791 19.4461289353602460   T   T   T
 10.8605779475194897  6.2702605846963211 19.4445098045580949   T   T   T
  2.7168861456688593  6.2725843631685700 19.4388409520739707   T   T   T
  5.4296571302439229  6.2724174245513202 19.4409410821051409   T   T   T
  8.1457668790563833  6.2705560301808401 19.4447720643399258   T   T   T
  1.3543035746034813  8.6232472834577134 19.4395976049397241   T   T   T
  4.0722469062712978  8.6242789810243679 19.4482635771775811   T   T   T
  6.7897902186359316  8.6248307355395273 19.4411406372989894   T   T   T
  9.5025914879159092  8.6214864713427524 19.4468050437145479   T   T   T
  0.0011728851306823  9.4049901327533920 21.6584235163300072   T   T   T
  2.7045316540652014  9.3914713456778660 21.6481924263301124   T   T   T
  5.4385890434537156  9.3935834974764276 21.6448054261355978   T   T   T
  8.1444903436727305  9.4036941812269532 21.6603286890864943   T   T   T
  1.3369423174623705  2.3503447718994837 21.6471251438488608   T   T   T
  4.0705280626401210  2.3442533145758930 21.7244776709471097   T   T   T
  6.8052670900284324  2.3536086485878909 21.6511036954547365   T   T   T
  9.5019090023059753  2.3522494951447790 21.6568061054975232   T   T   T
  0.0010501672931489  4.7024714887258448 21.6607158658580019   T   T   T
  2.6992066333109435  4.7263380063331990 21.6443664836176310   T   T   T
  5.4455430889659677  4.7206235055263255 21.6520976823567715   T   T   T
  8.1440774359388364  4.7007322105253486 21.6610225211409890   T   T   T
  1.3516369178650867  7.0556142624753626 21.6602700567293418   T   T   T
  4.0740138764487490  7.0524071897247333 21.6576803757833396   T   T   T
  6.7947052105463452  7.0560317037752593 21.6609951893484443   T   T   T
  9.5033911106039248  7.0540353933330833 21.6591265435789673   T   T   T
  4.2547925865520311  1.5483700406465342 24.6441388109172799   T   T   T
  3.9695174907554289  2.4769908020280775 23.8790944199363686   T   T   T
  4.1580933104091020  1.7132475701907768 25.7255389096953380   T   T   T
  4.6071396989465940  0.5722109815218860 24.2587713087605685   T   T   T
