CH3CHO_Cu111
 1.0000000000000000
    10.2106219203337467    0.0000000000000000    0.0000000000000000
     0.0000000000000000    8.8426579714472719    0.0000000000000000
     0.0000000000000000    0.0000000000000000   36.2527034153236514
 Cu  C   O   H  
  64   2   1   4
Selective dynamics
Cartesian
  0.0000000000000000  0.0000000000000000 15.0000000000000000   F   F   F
  2.5526554800834367  0.0000000000000000 15.0000000000000000   F   F   F
  5.1053109601668734  0.0000000000000000 15.0000000000000000   F   F   F
  7.6579664402503100  0.0000000000000000 15.0000000000000000   F   F   F
  1.2763277400417183  2.2106644928618180 15.0000000000000000   F   F   F
  3.8289832201251550  2.2106644928618180 15.0000000000000000   F   F   F
  6.3816387002085921  2.2106644928618180 15.0000000000000000   F   F   F
  8.9342941802920279  2.2106644928618180 15.0000000000000000   F   F   F
  0.0000000000000000  4.4213289857236360 15.0000000000000000   F   F   F
  2.5526554800834367  4.4213289857236360 15.0000000000000000   F   F   F
  5.1053109601668734  4.4213289857236360 15.0000000000000000   F   F   F
  7.6579664402503100  4.4213289857236360 15.0000000000000000   F   F   F
  1.2763277400417183  6.6319934785854526 15.0000000000000000   F   F   F
  3.8289832201251550  6.6319934785854526 15.0000000000000000   F   F   F
  6.3816387002085921  6.6319934785854526 15.0000000000000000   F   F   F
  8.9342941802920279  6.6319934785854526 15.0000000000000000   F   F   F
  1.2763277400417183  0.7368881642872727 17.0842344717745505   F   F   F
  3.8289832201251550  0.7368881642872727 17.0842344717745505   F   F   F
  6.3816387002085921  0.7368881642872727 17.0842344717745505   F   F   F
  8.9342941802920279  0.7368881642872727 17.0842344717745505   F   F   F
  0.0000000000000000  2.9475526571490906 17.0842344717745505   F   F   F
  2.5526554800834367  2.9475526571490906 17.0842344717745505   F   F   F
  5.1053109601668734  2.9475526571490906 17.0842344717745505   F   F   F
  7.6579664402503100  2.9475526571490906 17.0842344717745505   F   F   F
  1.2763277400417183  5.1582171500109091 17.0842344717745505   F   F   F
  3.8289832201251550  5.1582171500109091 17.0842344717745505   F   F   F
  6.3816387002085921  5.1582171500109091 17.0842344717745505   F   F   F
  8.9342941802920279  5.1582171500109091 17.0842344717745505   F   F   F
  0.0000000000000000  7.3688816428727266 17.0842344717745505   F   F   F
  2.5526554800834367  7.3688816428727266 17.0842344717745505   F   F   F
  5.1053109601668734  7.3688816428727266 17.0842344717745505   F   F   F
  7.6579664402503100  7.3688816428727266 17.0842344717745505   F   F   F
 10.2086085164795222  1.4750779121343625 19.1586744254894228   T   T   T
  2.5523166620965014  1.4728082069963291 19.1564450170292027   T   T   T
  5.1082633103757065  1.4746978227548695 19.1563737465767190   T   T   T
  7.6592496368382088  1.4704750287816739 19.1639193538091668   T   T   T
  1.2924442233239111  3.6943658388890563 19.2026481588023756   T   T   T
  3.8100214011373081  3.6958267052074256 19.1995653408826286   T   T   T
  6.3817727090465519  3.6813598198047681 19.1564167124362505   T   T   T
  8.9341413076582601  3.6807306728599127 19.1580881842470667   T   T   T
 10.2084541243934925  5.8959935343323773 19.1587886656844439   T   T   T
  2.5523688917583511  5.8762882973848418 19.2027251331207189   T   T   T
  5.1079849581642520  5.8973036681261073 19.1565820593725142   T   T   T
  7.6575178679250682  5.8932491732750547 19.1665800629312244   T   T   T
  1.2778313503334011  8.1075471558464614 19.1595150684673960   T   T   T
  3.8277818805999639  8.1078534528505770 19.1600856999607743   T   T   T
  6.3826670577103934  8.1050432048346490 19.1661610927493875   T   T   T
  8.9340317302542420  8.1048597632362114 19.1651080836802592   T   T   T
 10.2049574766300193  0.0003308364940695 21.2551391326057129   T   T   T
  2.5533740851908888  8.8395888901407282 21.2541234512833306   T   T   T
  5.1104682040623661  0.0011549609346301 21.2545579532143201   T   T   T
  7.6583718914389838  8.8426202309841333 21.2571064674167296   T   T   T
  1.2703947747043143  2.1908061634404756 21.2338428943527227   T   T   T
  3.8372498106322417  2.1946428797434723 21.2294957763872638   T   T   T
  6.3851391460098981  2.2091420908666710 21.2483621482172822   T   T   T
  8.9331800599892404  2.2100988518552516 21.2531792224815383   T   T   T
 10.1863366464305898  4.4237349269375050 21.2310041352519789   T   T   T
  2.5563752380435569  4.4150192224013445 21.4164352728686254   T   T   T
  5.1207153896616244  4.4226287041989512 21.2299524081653210   T   T   T
  7.6555130689599729  4.4192785594566324 21.2543571801254814   T   T   T
  1.2618644150617546  6.6489429836458509 21.2316793914817410   T   T   T
  3.8429097433817274  6.6444076348380170 21.2333401622703661   T   T   T
  6.3842445816421627  6.6327630320614261 21.2587006827489731   T   T   T
  8.9292116184273773  6.6336497250352071 21.2560229343802263   T   T   T
  2.9738692815263716  4.2949818057641185 25.8974648544849906   T   T   T
  3.1720161023373419  4.0891548198614664 24.4395654066844799   T   T   T
  2.3631974595745211  4.5088199420358155 23.5943787775372478   T   T   T
  3.8309337588619541  4.8464325506850150 26.3145509320866999   T   T   T
  2.0455991322597376  4.8349520331294586 26.0960308670292136   T   T   T
  2.9722849094001913  3.3262626262239445 26.4198328952117052   T   T   T
  4.0798615876503366  3.5446473974514454 24.1098368989545087   T   T   T
