CH3CHO_Pt110
 1.0000000000000000
    11.7599999999999998    0.0000000000000000    0.0000000000000000
     0.0000000000000000    5.5437171645025325    0.0000000000000000
     0.0000000000000000    0.0000000000000000   34.1577878733768969
 Pt  C   O   H  
  24   2   1   4
Selective dynamics
Cartesian
  1.9600000000000000  1.3859292911256331 14.9999999999999982   F   F   F
  5.8799999999999999  1.3859292911256331 14.9999999999999982   F   F   F
  9.8000000000000007  1.3859292911256331 14.9999999999999982   F   F   F
  1.9600000000000000  4.1577878733768996 14.9999999999999982   F   F   F
  5.8799999999999999  4.1577878733768996 14.9999999999999982   F   F   F
  9.8000000000000007  4.1577878733768996 14.9999999999999982   F   F   F
  0.0000000000000000  0.0000000000000000 16.3859292911256311   F   F   F
  3.9199999999999999  0.0000000000000000 16.3859292911256311   F   F   F
  7.8399999999999999  0.0000000000000000 16.3859292911256311   F   F   F
  0.0000000000000000  2.7718585822512662 16.3859292911256311   F   F   F
  3.9199999999999999  2.7718585822512662 16.3859292911256311   F   F   F
  7.8399999999999999  2.7718585822512662 16.3859292911256311   F   F   F
  1.9471143967119573  1.3915110460565581 17.8743798746839992   T   T   T
  5.8787335018875302  1.3926491413033013 17.8947706175541832   T   T   T
  9.8057134387152622  1.3959471617867405 17.9039252849387758   T   T   T
  1.9472396611745728  4.1723202482471269 17.8710179632665351   T   T   T
  5.8800120360994468  4.1683664298601606 17.8976727261669524   T   T   T
  9.8062299772263959  4.1637677544414560 17.9034915027664816   T   T   T
  0.0107900266652424  0.0097349034851533 19.1963051727176008   T   T   T
  3.8614670767853969  0.0149917879560204 19.2120929130860176   T   T   T
  7.8492220591053741  0.0091678613272730 19.1757763191197128   T   T   T
  0.0118593363663915  2.7802760602880849 19.1965325848206376   T   T   T
  3.8883742398335563  2.7820182083976519 19.1424392041808247   T   T   T
  7.8366512843766696  2.7821632272538066 19.1913787648394383   T   T   T
  5.6742212276430717  1.2168026310591664 23.0650208977097577   T   T   T
  4.8904480758376057  1.1177743969183993 21.8107058089901678   T   T   T
  4.7388527517984587  0.0456387403058326 21.2040575660742050   T   T   T
  6.1290615653810718  0.2587500420857328 23.3275482462011432   T   T   T
  6.4494528166315526  1.9878684988445887 22.9446654316520977   T   T   T
  5.0300486347732232  1.5654187233949768 23.8873346636197645   T   T   T
  4.4366899974577265  2.0498712446513170 21.4053330998042135   T   T   T
