H2O_Rh100
 1.0000000000000000
     8.0673812665573212    0.0000000000000000    0.0000000000000000
     0.0000000000000000    8.0673812665573212    0.0000000000000000
     0.0000000000000000    0.0000000000000000   35.7044999999999959
 Rh  O   H  
  36   1   2
Selective dynamics
Cartesian
  1.3445635444262201  1.3445635444262201 14.9999999999999964   F   F   F
  4.0336906332786597  1.3445635444262201 14.9999999999999964   F   F   F
  6.7228177221311043  1.3445635444262201 14.9999999999999964   F   F   F
  1.3445635444262201  4.0336906332786597 14.9999999999999964   F   F   F
  4.0336906332786597  4.0336906332786597 14.9999999999999964   F   F   F
  6.7228177221311043  4.0336906332786597 14.9999999999999964   F   F   F
  1.3445635444262201  6.7228177221311043 14.9999999999999964   F   F   F
  4.0336906332786597  6.7228177221311043 14.9999999999999964   F   F   F
  6.7228177221311043  6.7228177221311043 14.9999999999999964   F   F   F
  0.0000000000000000  0.0000000000000000 16.9014999999999986   F   F   F
  2.6891270888524401  0.0000000000000000 16.9014999999999986   F   F   F
  5.3782541777048802  0.0000000000000000 16.9014999999999986   F   F   F
  0.0000000000000000  2.6891270888524401 16.9014999999999986   F   F   F
  2.6891270888524401  2.6891270888524401 16.9014999999999986   F   F   F
  5.3782541777048802  2.6891270888524401 16.9014999999999986   F   F   F
  0.0000000000000000  5.3782541777048802 16.9014999999999986   F   F   F
  2.6891270888524401  5.3782541777048802 16.9014999999999986   F   F   F
  5.3782541777048802  5.3782541777048802 16.9014999999999986   F   F   F
  1.3528057156792455  1.3522883861303832 18.8501816094142569   T   T   T
  4.0275846788024463  1.3498916269357810 18.8456093127500175   T   T   T
  6.7226706281469060  1.3414172069970605 18.8383989883042631   T   T   T
  1.3526473315817968  4.0247381181947413 18.8493570188594397   T   T   T
  4.0193041435700918  4.0179617507327405 18.8558456407981936   T   T   T
  6.7203827867473835  4.0365535033900706 18.8358980000331364   T   T   T
  1.3402094577580397  6.7212118880087521 18.8352875811295633   T   T   T
  4.0369059312460012  6.7187249127703321 18.8357034236098464   T   T   T
  6.7208383470450324  6.7197722766506889 18.8418850440140204   T   T   T
  0.0039347221578898  0.0029434067915146 20.6922998622228782   T   T   T
  2.6913215557971188  8.0464499557293632 20.6677391955968126   T   T   T
  5.3760466266270326  0.0046619313665012 20.6935771608793182   T   T   T
  8.0520123052765129  2.6909325723243933 20.6758844062215132   T   T   T
  2.7057461813450447  2.7071941623605400 20.7599208081346838   T   T   T
  5.3955699366450691  2.6877648978520718 20.6870577821290702   T   T   T
  0.0051077839039597  5.3758724898749390 20.6945222055174796   T   T   T
  2.6881616313000634  5.3927876402615107 20.6881527565731567   T   T   T
  5.3733131520468991  5.3740537218737536 20.6933603181680041   T   T   T
  2.4957240015416300  2.3341657056445451 22.9246384169700974   T   T   T
  1.5104954353150299  2.3284535582718724 22.9662440311219704   T   T   T
  2.7599795961082534  1.3816946620732664 22.9363880042245185   T   T   T
