CH3CH2OH_Pt100
 1.0000000000000000
    11.0874343290050650    0.0000000000000000    0.0000000000000000
     0.0000000000000000   11.0874343290050650    0.0000000000000000
     0.0000000000000000    0.0000000000000000   35.8800000000000026
 Pt  C   O   H  
  64   2   1   6
Selective dynamics
Cartesian
  1.3859292911256331  1.3859292911256331 15.0000000000000018   F   F   F
  4.1577878733768996  1.3859292911256331 15.0000000000000018   F   F   F
  6.9296464556281654  1.3859292911256331 15.0000000000000018   F   F   F
  9.7015050378794339  1.3859292911256331 15.0000000000000018   F   F   F
  1.3859292911256331  4.1577878733768996 15.0000000000000018   F   F   F
  4.1577878733768996  4.1577878733768996 15.0000000000000018   F   F   F
  6.9296464556281654  4.1577878733768996 15.0000000000000018   F   F   F
  9.7015050378794339  4.1577878733768996 15.0000000000000018   F   F   F
  1.3859292911256331  6.9296464556281654 15.0000000000000018   F   F   F
  4.1577878733768996  6.9296464556281654 15.0000000000000018   F   F   F
  6.9296464556281654  6.9296464556281654 15.0000000000000018   F   F   F
  9.7015050378794339  6.9296464556281654 15.0000000000000018   F   F   F
  1.3859292911256331  9.7015050378794339 15.0000000000000018   F   F   F
  4.1577878733768996  9.7015050378794339 15.0000000000000018   F   F   F
  6.9296464556281654  9.7015050378794339 15.0000000000000018   F   F   F
  9.7015050378794339  9.7015050378794339 15.0000000000000018   F   F   F
  0.0000000000000000  0.0000000000000000 16.9600000000000009   F   F   F
  2.7718585822512662  0.0000000000000000 16.9600000000000009   F   F   F
  5.5437171645025325  0.0000000000000000 16.9600000000000009   F   F   F
  8.3155757467537992  0.0000000000000000 16.9600000000000009   F   F   F
  0.0000000000000000  2.7718585822512662 16.9600000000000009   F   F   F
  2.7718585822512662  2.7718585822512662 16.9600000000000009   F   F   F
  5.5437171645025325  2.7718585822512662 16.9600000000000009   F   F   F
  8.3155757467537992  2.7718585822512662 16.9600000000000009   F   F   F
  0.0000000000000000  5.5437171645025325 16.9600000000000009   F   F   F
  2.7718585822512662  5.5437171645025325 16.9600000000000009   F   F   F
  5.5437171645025325  5.5437171645025325 16.9600000000000009   F   F   F
  8.3155757467537992  5.5437171645025325 16.9600000000000009   F   F   F
  0.0000000000000000  8.3155757467537992 16.9600000000000009   F   F   F
  2.7718585822512662  8.3155757467537992 16.9600000000000009   F   F   F
  5.5437171645025325  8.3155757467537992 16.9600000000000009   F   F   F
  8.3155757467537992  8.3155757467537992 16.9600000000000009   F   F   F
  1.3938232790995573  1.4001541333457652 18.9676658753165661   T   T   T
  4.1451413321886736  1.4038970970443847 18.9721332046135345   T   T   T
  6.9245079353768819  1.3847320373947312 18.9464994251175263   T   T   T
  9.7024431177176353  1.3828803384592114 18.9445867222980873   T   T   T
  1.3940406024803278  4.1524125399799967 18.9609334582775233   T   T   T
  4.1489509416788062  4.1493492837254013 18.9697654036515786   T   T   T
  6.9278003364938980  4.1584949870214238 18.9458325998649215   T   T   T
  9.7038482941815776  4.1608020112560382 18.9455510004831709   T   T   T
  1.3824550421279742  6.9296492646981696 18.9443064628140192   T   T   T
  4.1619172822569324  6.9303964308704069 18.9427300372039760   T   T   T
  6.9343475843486111  6.9316723899099602 18.9516807183166769   T   T   T
  9.7013627145292247  6.9300947509884834 18.9549818402984727   T   T   T
  1.3833223537173440  9.7084789140232193 18.9470384660537299   T   T   T
  4.1600178800180112  9.7100385344195743 18.9448798219299697   T   T   T
  6.9311816876181274  9.7018065770469111 18.9536890510744982   T   T   T
  9.7015078274734421  9.6990796843746310 18.9553149724555290   T   T   T
  0.0024863753378142  0.0072221926621928 20.9375025199073903   T   T   T
  2.7719695105518469 11.0718628330684723 20.9387850502794883   T   T   T
  5.5404936531005298  0.0071418213074378 20.9391736294162278   T   T   T
  8.3154663451014965  0.0037902316010239 20.9366892497849868   T   T   T
 11.0696249950468726  2.7800742661174773 20.9294200402125661   T   T   T
  2.8196215997611835  2.7790639623800244 21.0109178742330158   T   T   T
  5.5870263984781090  2.7787102364091343 20.9492693632742473   T   T   T
  8.3251363733347734  2.7714930445373969 20.9349141625362662   T   T   T
  0.0047002280829239  5.5356796016008820 20.9420659595648964   T   T   T
  2.7712803817966138  5.5808008907240980 20.9144773346139345   T   T   T
  5.5473416982211470  5.5435104728021329 20.9293604724276463   T   T   T
  8.3168506940491120  5.5364369303834016 20.9391323315409750   T   T   T
  0.0086398596851922  8.3093809989633289 20.9390356095173367   T   T   T
  2.7753347184647903  8.3220370464132341 20.9281292201397306   T   T   T
  5.5388883715651760  8.3149099777453710 20.9341286068599750   T   T   T
  8.3155378299174281  8.3145160802249460 20.9424420069897756   T   T   T
  3.2913895564282698  5.0142743876737050 24.3108476982402628   T   T   T
  3.5092562768592970  3.5339625450552070 24.1007136059829534   T   T   T
  2.5114118898596458  2.8987233448335523 23.2368947203979452   T   T   T
  2.3131379008115762  5.2194361583454487 24.7673319669706586   T   T   T
  4.0646231346684738  5.4120304285699028 24.9821862766130138   T   T   T
  3.3527299227206169  5.5744113829674546 23.3601678221448275   T   T   T
  3.4904361069087901  2.9833470579809864 25.0559559745870217   T   T   T
  4.4785699963679244  3.3097805557047129 23.6197240552284420   T   T   T
  1.6591982793745523  3.3747010628445571 23.3034167704523512   T   T   T
