CO2_Ag111
 1.0000000000000000
    11.5682669402119185    0.0000000000000000    0.0000000000000000
     0.0000000000000000   10.0184130479831968    0.0000000000000000
     0.0000000000000000    0.0000000000000000   37.0840878029567094
 Ag  O   C  
  64   2   1
Selective dynamics
Cartesian
  0.0000000000000000  0.0000000000000000 14.9999999999999982   F   F   F
  2.8920667350529796  0.0000000000000000 14.9999999999999982   F   F   F
  5.7841334701059592  0.0000000000000000 14.9999999999999982   F   F   F
  8.6762002051589384  0.0000000000000000 14.9999999999999982   F   F   F
  1.4460333675264898  2.5046032619957992 14.9999999999999982   F   F   F
  4.3381001025794692  2.5046032619957992 14.9999999999999982   F   F   F
  7.2301668376324493  2.5046032619957992 14.9999999999999982   F   F   F
 10.1222335726854293  2.5046032619957992 14.9999999999999982   F   F   F
  0.0000000000000000  5.0092065239915984 14.9999999999999982   F   F   F
  2.8920667350529796  5.0092065239915984 14.9999999999999982   F   F   F
  5.7841334701059592  5.0092065239915984 14.9999999999999982   F   F   F
  8.6762002051589384  5.0092065239915984 14.9999999999999982   F   F   F
  1.4460333675264898  7.5138097859873980 14.9999999999999982   F   F   F
  4.3381001025794692  7.5138097859873980 14.9999999999999982   F   F   F
  7.2301668376324493  7.5138097859873980 14.9999999999999982   F   F   F
 10.1222335726854293  7.5138097859873980 14.9999999999999982   F   F   F
  1.4460333675264898  0.8348677539985997 17.3613626009855686   F   F   F
  4.3381001025794692  0.8348677539985997 17.3613626009855686   F   F   F
  7.2301668376324493  0.8348677539985997 17.3613626009855686   F   F   F
 10.1222335726854293  0.8348677539985997 17.3613626009855686   F   F   F
  0.0000000000000000  3.3394710159943988 17.3613626009855686   F   F   F
  2.8920667350529796  3.3394710159943988 17.3613626009855686   F   F   F
  5.7841334701059592  3.3394710159943988 17.3613626009855686   F   F   F
  8.6762002051589384  3.3394710159943988 17.3613626009855686   F   F   F
  1.4460333675264898  5.8440742779901989 17.3613626009855686   F   F   F
  4.3381001025794692  5.8440742779901989 17.3613626009855686   F   F   F
  7.2301668376324493  5.8440742779901989 17.3613626009855686   F   F   F
 10.1222335726854293  5.8440742779901989 17.3613626009855686   F   F   F
  0.0000000000000000  8.3486775399859976 17.3613626009855686   F   F   F
  2.8920667350529796  8.3486775399859976 17.3613626009855686   F   F   F
  5.7841334701059592  8.3486775399859976 17.3613626009855686   F   F   F
  8.6762002051589384  8.3486775399859976 17.3613626009855686   F   F   F
  0.0002362631571362  1.6697680091242395 19.7679819339057268   T   T   T
  2.8922067593384675  1.6699789508253082 19.7685114422665080   T   T   T
  5.7830808924585853  1.6693394337465217 19.7664961105653703   T   T   T
  8.6768072845406810  1.6691453038322179 19.7668691364392330   T   T   T
  1.4459432161358328  4.1743619069222282 19.7683455131524930   T   T   T
  4.3379193804414031  4.1742126472698811 19.7681288974219029   T   T   T
  7.2304441899777689  4.1749632613403564 19.7672188320264155   T   T   T
 10.1223254054048439  4.1743716984123438 19.7680916278785865   T   T   T
 11.5681077126944505  6.6791301933123899 19.7685215292997007   T   T   T
  2.8920187016137024  6.6788940034054587 19.7680820015809573   T   T   T
  5.7841832311989965  6.6789568172881379 19.7687023293153139   T   T   T
  8.6761415725377748  6.6790248427654264 19.7688497387112463   T   T   T
  1.4460058624364758  9.1836759973038742 19.7681051990248484   T   T   T
  4.3380343649611213  9.1834254116395204 19.7681181320131074   T   T   T
  7.2301782252242575  9.1831458169685281 19.7688865706828487   T   T   T
 10.1224046115581583  9.1833262676873293 19.7685710921134259   T   T   T
 11.5668551982372509  0.0006407610442310 22.1873692585066280   T   T   T
  2.8921317187180429  0.0002044928689653 22.1856110104429121   T   T   T
  5.7842349047234709  0.0018430523084602 22.1845155184685403   T   T   T
  8.6765942767091602  0.0011357113413763 22.1818712067703316   T   T   T
  1.4461920319495853  2.5044589192013089 22.1857886917877032   T   T   T
  4.3424004712309694  2.5046645635007327 22.1900303546876394   T   T   T
  7.2288707885814736  2.5048017356640777 22.1719599993487186   T   T   T
 10.1204291124638974  2.5044403914028495 22.1843103777165993   T   T   T
 11.5668245559818637  5.0086472431342992 22.1873002882519437   T   T   T
  2.8922033071560125  5.0089581577546864 22.1856040887542569   T   T   T
  5.7844492486162862  5.0073654849384237 22.1850941520423675   T   T   T
  8.6766080116056035  5.0080946473649997 22.1820588484103354   T   T   T
  1.4454382203967757  7.5138065503437366 22.1852610633417093   T   T   T
  4.3390697369952003  7.5139171676437337 22.1853639929694744   T   T   T
  7.2299970546766854  7.5136373902915379 22.1889735698225010   T   T   T
 10.1195851023180943  7.5138279953773646 22.1895538977661033   T   T   T
  7.8887770674576121  3.6525013404900495 25.7768957401471681   T   T   T
  7.8088977729971276  1.3024574368339386 25.7703947303750134   T   T   T
  7.8482325063843099  2.4775397200245344 25.7674001560997894   T   T   T
