NH3_Ir110
 1.0000000000000000
    11.5199999999999996    0.0000000000000000    0.0000000000000000
     0.0000000000000000    5.4305800795126853    0.0000000000000000
     0.0000000000000000    0.0000000000000000   34.0729350596345171
 Ir  N   H  
  24   1   3
Selective dynamics
Cartesian
  1.9199999999999999  1.3576450198781711 15.0000000000000018   F   F   F
  5.7599999999999989  1.3576450198781711 15.0000000000000018   F   F   F
  9.5999999999999996  1.3576450198781711 15.0000000000000018   F   F   F
  1.9199999999999999  4.0729350596345135 15.0000000000000018   F   F   F
  5.7599999999999989  4.0729350596345135 15.0000000000000018   F   F   F
  9.5999999999999996  4.0729350596345135 15.0000000000000018   F   F   F
  0.0000000000000000  0.0000000000000000 16.3576450198781735   F   F   F
  3.8399999999999999  0.0000000000000000 16.3576450198781735   F   F   F
  7.6799999999999997  0.0000000000000000 16.3576450198781735   F   F   F
  0.0000000000000000  2.7152900397563422 16.3576450198781735   F   F   F
  3.8399999999999999  2.7152900397563422 16.3576450198781735   F   F   F
  7.6799999999999997  2.7152900397563422 16.3576450198781735   F   F   F
  1.9209920420086106  1.3591149570851753 17.7833640851879373   T   T   T
  5.7578951700702952  1.3669085525528237 17.7669869220996084   T   T   T
  9.5925552701591617  1.3528032641711154 17.7769419018157535   T   T   T
  1.9185193563237544  4.0743785516936981 17.7727092056974207   T   T   T
  5.7617395936102698  4.0657732978023038 17.7656839933389499   T   T   T
  9.5963038689186764  4.0790828674630317 17.7837763885225542   T   T   T
  0.0001543129037697  0.0048205434033800 19.0149631730019024   T   T   T
  3.8560474291962956  0.0001679469912151 18.9772129332973165   T   T   T
  7.6683943915108275  0.0000663574430827 19.0114764720315783   T   T   T
 11.5088095716909482  2.7154111774018124 18.9941243562390980   T   T   T
  3.8639867875461191  2.7204090880447724 19.0356833155190870   T   T   T
  7.6673348676455646  2.7157834048133265 19.0053885750264335   T   T   T
  3.0414449827501451  2.7664360371739698 21.0135886934341620   T   T   T
  2.1371214137297923  3.2515106689447455 20.9652955497020947   T   T   T
  2.8788436523171557  1.8077917809181308 21.3348791800837887   T   T   T
  3.6681866567057644  3.2596182436665537 21.6576998600558035   T   T   T
