N2_Rh111
 1.0000000000000000
    10.7565083554097622    0.0000000000000000    0.0000000000000000
     0.0000000000000000    9.3154094918044255    0.0000000000000000
     0.0000000000000000    0.0000000000000000   36.5869892211844387
 Rh  N  
  64   2
Selective dynamics
Cartesian
  0.0000000000000000  0.0000000000000000 15.0000000000000000   F   F   F
  2.6891270888524406  0.0000000000000000 15.0000000000000000   F   F   F
  5.3782541777048811  0.0000000000000000 15.0000000000000000   F   F   F
  8.0673812665573212  0.0000000000000000 15.0000000000000000   F   F   F
  1.3445635444262203  2.3288523729511064 15.0000000000000000   F   F   F
  4.0336906332786606  2.3288523729511064 15.0000000000000000   F   F   F
  6.7228177221311016  2.3288523729511064 15.0000000000000000   F   F   F
  9.4119448109835417  2.3288523729511064 15.0000000000000000   F   F   F
  0.0000000000000000  4.6577047459022127 15.0000000000000000   F   F   F
  2.6891270888524406  4.6577047459022127 15.0000000000000000   F   F   F
  5.3782541777048811  4.6577047459022127 15.0000000000000000   F   F   F
  8.0673812665573212  4.6577047459022127 15.0000000000000000   F   F   F
  1.3445635444262203  6.9865571188533195 15.0000000000000000   F   F   F
  4.0336906332786606  6.9865571188533195 15.0000000000000000   F   F   F
  6.7228177221311016  6.9865571188533195 15.0000000000000000   F   F   F
  9.4119448109835417  6.9865571188533195 15.0000000000000000   F   F   F
  1.3445635444262203  0.7762841243170354 17.1956630737281486   F   F   F
  4.0336906332786606  0.7762841243170354 17.1956630737281486   F   F   F
  6.7228177221311016  0.7762841243170354 17.1956630737281486   F   F   F
  9.4119448109835417  0.7762841243170354 17.1956630737281486   F   F   F
  0.0000000000000000  3.1051364972681417 17.1956630737281486   F   F   F
  2.6891270888524406  3.1051364972681417 17.1956630737281486   F   F   F
  5.3782541777048811  3.1051364972681417 17.1956630737281486   F   F   F
  8.0673812665573212  3.1051364972681417 17.1956630737281486   F   F   F
  1.3445635444262203  5.4339888702192489 17.1956630737281486   F   F   F
  4.0336906332786606  5.4339888702192489 17.1956630737281486   F   F   F
  6.7228177221311016  5.4339888702192489 17.1956630737281486   F   F   F
  9.4119448109835417  5.4339888702192489 17.1956630737281486   F   F   F
  0.0000000000000000  7.7628412431703548 17.1956630737281486   F   F   F
  2.6891270888524406  7.7628412431703548 17.1956630737281486   F   F   F
  5.3782541777048811  7.7628412431703548 17.1956630737281486   F   F   F
  8.0673812665573212  7.7628412431703548 17.1956630737281486   F   F   F
  0.0000331419356948  1.5560645558748896 19.3982569228966604   T   T   T
  2.6935375410266134  1.5556460745602056 19.4041026123740217   T   T   T
  5.3773729063579037  1.5554145082804434 19.4045787382172463   T   T   T
  8.0705764826496544  1.5560617651678501 19.3988416273249342   T   T   T
  1.3438099401146681  3.8894733057471789 19.4001636167115343   T   T   T
  4.0354793431100866  3.8892284965197068 19.4038560390007397   T   T   T
  6.7265273184794578  3.8897647859130027 19.4010528342928623   T   T   T
  9.4132687185383475  3.8846864492137305 19.4009768460373451   T   T   T
  0.0038901431531976  6.2114515785546001 19.4002807489989273   T   T   T
  2.6991757350388017  6.2188710056743277 19.4232161556316250   T   T   T
  5.3703426406793122  6.2193210396591523 19.4243918378495017   T   T   T
  8.0654584409278982  6.2115413643630477 19.4012821449709882   T   T   T
  1.3493915058075512  8.5416579969822806 19.4040237727417342   T   T   T
  4.0351835981862090  8.5316593074819203 19.4243657030683252   T   T   T
  6.7212986714141492  8.5416529381818851 19.4048439156865236   T   T   T
  9.4133824652810496  8.5438892117257463 19.4008600086228888   T   T   T
  0.0040052519706507  0.0086776109247537 21.5898005001414894   T   T   T
  2.6750213888148586  0.0276297200956553 21.5912242272933490   T   T   T
  5.3969064203865988  0.0267250893805891 21.5916699157965084   T   T   T
  8.0686775645747915  0.0086230716898482 21.5908106063024547   T   T   T
  1.3360245056021527  2.3353663542352847 21.5901503615297834   T   T   T
  4.0367238517329547  2.3348181736300688 21.5880613009383104   T   T   T
  6.7364219398510583  2.3351327084640441 21.5906329109678445   T   T   T
  9.4147698497162029  2.3364014551396513 21.5913126734708172   T   T   T
  0.0022714608098345  4.6647119009929225 21.5875268812091505   T   T   T
  2.6798657076183070  4.6386942616501381 21.5896975466242367   T   T   T
  5.3916661830961266  4.6393618692502354 21.5908738468448185   T   T   T
  8.0695781325755753  4.6650157779509849 21.5883849771856511   T   T   T
  1.3181715868294850  6.9956005328137572 21.5898032916620650   T   T   T
  4.0336965921590409  6.9924396785826834 21.7045349101229945   T   T   T
  6.7517045158083766  6.9960976620838498 21.5914639168946820   T   T   T
  9.4134139480170500  6.9951818573785172 21.5874977640126602   T   T   T
  4.0353401244940752  7.0075490135536365 23.6103044127769444   T   T   T
  4.0482950262082946  7.0224427361625548 24.7399375812247762   T   T   T
