CH3CHO_Rh111
 1.0000000000000000
    10.7565083554097622    0.0000000000000000    0.0000000000000000
     0.0000000000000000    9.3154094918044255    0.0000000000000000
     0.0000000000000000    0.0000000000000000   36.5869892211844387
 Rh  C   O   H  
  64   2   1   4
Selective dynamics
Cartesian
  0.0000000000000000  0.0000000000000000 15.0000000000000000   F   F   F
  2.6891270888524406  0.0000000000000000 15.0000000000000000   F   F   F
  5.3782541777048811  0.0000000000000000 15.0000000000000000   F   F   F
  8.0673812665573212  0.0000000000000000 15.0000000000000000   F   F   F
  1.3445635444262203  2.3288523729511064 15.0000000000000000   F   F   F
  4.0336906332786606  2.3288523729511064 15.0000000000000000   F   F   F
  6.7228177221311016  2.3288523729511064 15.0000000000000000   F   F   F
  9.4119448109835417  2.3288523729511064 15.0000000000000000   F   F   F
  0.0000000000000000  4.6577047459022127 15.0000000000000000   F   F   F
  2.6891270888524406  4.6577047459022127 15.0000000000000000   F   F   F
  5.3782541777048811  4.6577047459022127 15.0000000000000000   F   F   F
  8.0673812665573212  4.6577047459022127 15.0000000000000000   F   F   F
  1.3445635444262203  6.9865571188533195 15.0000000000000000   F   F   F
  4.0336906332786606  6.9865571188533195 15.0000000000000000   F   F   F
  6.7228177221311016  6.9865571188533195 15.0000000000000000   F   F   F
  9.4119448109835417  6.9865571188533195 15.0000000000000000   F   F   F
  1.3445635444262203  0.7762841243170354 17.1956630737281486   F   F   F
  4.0336906332786606  0.7762841243170354 17.1956630737281486   F   F   F
  6.7228177221311016  0.7762841243170354 17.1956630737281486   F   F   F
  9.4119448109835417  0.7762841243170354 17.1956630737281486   F   F   F
  0.0000000000000000  3.1051364972681417 17.1956630737281486   F   F   F
  2.6891270888524406  3.1051364972681417 17.1956630737281486   F   F   F
  5.3782541777048811  3.1051364972681417 17.1956630737281486   F   F   F
  8.0673812665573212  3.1051364972681417 17.1956630737281486   F   F   F
  1.3445635444262203  5.4339888702192489 17.1956630737281486   F   F   F
  4.0336906332786606  5.4339888702192489 17.1956630737281486   F   F   F
  6.7228177221311016  5.4339888702192489 17.1956630737281486   F   F   F
  9.4119448109835417  5.4339888702192489 17.1956630737281486   F   F   F
  0.0000000000000000  7.7628412431703548 17.1956630737281486   F   F   F
  2.6891270888524406  7.7628412431703548 17.1956630737281486   F   F   F
  5.3782541777048811  7.7628412431703548 17.1956630737281486   F   F   F
  8.0673812665573212  7.7628412431703548 17.1956630737281486   F   F   F
  0.0057354895358884  1.5475215817713941 19.3988563472518152   T   T   T
  2.6932133682690744  1.5462098327595140 19.4021181994364440   T   T   T
  5.3809521273179355  1.5460603401774669 19.3996777434293648   T   T   T
  8.0702885035303265  1.5436682084723850 19.3987725967533073   T   T   T
  1.3467055027927322  3.8727690715971024 19.4011016425396008   T   T   T
  4.0403908593788103  3.8728933613428569 19.3992473332250093   T   T   T
  6.7352843060369310  3.8808108897238842 19.4332554041700192   T   T   T
  9.4094903148368232  3.8777501776995251 19.4298718844832123   T   T   T
  0.0037377641494954  6.2030492918534881 19.4006246294045717   T   T   T
  2.6927654212498977  6.2031612367891436 19.4025883053228760   T   T   T
  5.3845650946764207  6.2027082395890138 19.4033833570841594   T   T   T
  8.0711775508334132  6.1869315014589237 19.4379303529066441   T   T   T
  1.3489109211342236  8.5324254772676067 19.4006935780359058   T   T   T
  4.0380100876672707  8.5320284803814861 19.4011477292665333   T   T   T
  6.7301338650260281  8.5268749873474405 19.4051149025237102   T   T   T
  9.4128799880666207  8.5303585638143051 19.4028976815940837   T   T   T
  0.0109259030913370  9.3039405759059175 21.5879529569525737   T   T   T
  2.6973175900663082  9.3029151461787194 21.5893134923683689   T   T   T
  5.3807930680060130  9.3026548872997274 21.5882144771265523   T   T   T
  8.0736028298081983  9.3041782813311080 21.5877539046415095   T   T   T
  1.3535119909095314  2.3173108145266901 21.5895147706376491   T   T   T
  4.0409839311468714  2.3193117673366230 21.5887114978302037   T   T   T
  6.7181225689355255  2.3023926641697008 21.5769408057200103   T   T   T
  9.4329397511645983  2.2983482446020731 21.5678694576699073   T   T   T
  0.0251511043098534  4.6490204628340059 21.5825438947530728   T   T   T
  2.6975145110797545  4.6486237958556753 21.5879177002461944   T   T   T
  5.3695427972823655  4.6508268286474559 21.5817745093458520   T   T   T
  8.0701322401655489  4.6484221985831455 21.7140198974336265   T   T   T
  1.3499891103088928  6.9752056856177473 21.5891836202599841   T   T   T
  4.0412299645962264  6.9759060112854048 21.5906036150710534   T   T   T
  6.7241005930842688  6.9781599082117358 21.5769688874584986   T   T   T
  9.4287070301551115  6.9840106355610780 21.5821403838405494   T   T   T
  7.1954864107086900  6.1413211062248196 24.9196854472340306   T   T   T
  7.8950963824316762  4.8461730851535210 24.8248865654090203   T   T   T
  8.2395253362799146  4.2480965516175395 23.7902030189491320   T   T   T
  6.9961517718537776  6.5760499768716700 23.9299672497286160   T   T   T
  6.2436254428221467  6.0185867122303485 25.4608628183367109   T   T   T
  7.7878729809177134  6.8503846156696424 25.5197023786593213   T   T   T
  8.1435592906050633  4.3469131023000216 25.7798997501632492   T   T   T
