CH3OH_Ag100
 1.0000000000000000
     8.6762002051589384    0.0000000000000000    0.0000000000000000
     0.0000000000000000    8.6762002051589384    0.0000000000000000
     0.0000000000000000    0.0000000000000000   36.1349999999999980
 Ag  C   O   H  
  36   1   1   4
Selective dynamics
Cartesian
  1.4460333675264894  1.4460333675264894 15.0000000000000000   F   F   F
  4.3381001025794692  1.4460333675264894 15.0000000000000000   F   F   F
  7.2301668376324475  1.4460333675264894 15.0000000000000000   F   F   F
  1.4460333675264894  4.3381001025794692 15.0000000000000000   F   F   F
  4.3381001025794692  4.3381001025794692 15.0000000000000000   F   F   F
  7.2301668376324475  4.3381001025794692 15.0000000000000000   F   F   F
  1.4460333675264894  7.2301668376324475 15.0000000000000000   F   F   F
  4.3381001025794692  7.2301668376324475 15.0000000000000000   F   F   F
  7.2301668376324475  7.2301668376324475 15.0000000000000000   F   F   F
  0.0000000000000000  0.0000000000000000 17.0450000000000017   F   F   F
  2.8920667350529787  0.0000000000000000 17.0450000000000017   F   F   F
  5.7841334701059575  0.0000000000000000 17.0450000000000017   F   F   F
  0.0000000000000000  2.8920667350529787 17.0450000000000017   F   F   F
  2.8920667350529787  2.8920667350529787 17.0450000000000017   F   F   F
  5.7841334701059575  2.8920667350529787 17.0450000000000017   F   F   F
  0.0000000000000000  5.7841334701059575 17.0450000000000017   F   F   F
  2.8920667350529787  5.7841334701059575 17.0450000000000017   F   F   F
  5.7841334701059575  5.7841334701059575 17.0450000000000017   F   F   F
  1.4551689183198346  1.4544514510527367 19.1792903277700688   T   T   T
  4.3288201123109014  1.4536867221358445 19.1804244345635801   T   T   T
  7.2295551330178256  1.4407006483362375 19.1565842005337394   T   T   T
  1.4543459880294201  4.3286376648732112 19.1794317585896508   T   T   T
  4.3281681640218794  4.3281846179904804 19.1788665458506848   T   T   T
  7.2307848339664220  4.3437687882912748 19.1558282577596017   T   T   T
  1.4409420541140894  7.2293294497536458 19.1579465476594493   T   T   T
  4.3431482506143508  7.2306967283195638 19.1576281760586049   T   T   T
  7.2308955814286096  7.2300962849474786 19.1660305471781989   T   T   T
  0.0007118573633735  0.0014341289797234 21.2468523863660401   T   T   T
  2.8921533747711110  8.6599369640447748 21.2339953769445238   T   T   T
  5.7834300471197890  0.0016026607314529 21.2470417366721449   T   T   T
  8.6598053760396958  2.8913519438746791 21.2339708694250788   T   T   T
  2.8924766009170764  2.8992599582599943 21.3185838797161971   T   T   T
  5.7978955924985156  2.8934585057380651 21.2305610808023104   T   T   T
  0.0021933842991832  5.7814096904735424 21.2485545393592901   T   T   T
  2.8935098320103450  5.7978894576862983 21.2336221264304861   T   T   T
  5.7828456312194207  5.7824963428645022 21.2447693947607448   T   T   T
  3.2235614048611358  3.2432352117196626 25.0121933904611957   T   T   T
  2.7296557957266234  2.4863025602631508 23.8791582268865170   T   T   T
  4.1597865806581753  3.7197602762755428 24.7057100207844691   T   T   T
  1.8844952446902277  2.0629565441738307 24.1141882557262548   T   T   T
  2.5143030335939263  4.0233932881037315 25.3243542613679224   T   T   T
  3.4331016474632250  2.5842628793424751 25.8670754664845717   T   T   T
