CH3COOH molecule | 8 atoms | 20x20x20 A box
   1.00000000000000
   20.0000000000000000    0.0000000000000000    0.0000000000000000
    0.0000000000000000   20.0000000000000000    0.0000000000000000
    0.0000000000000000    0.0000000000000000   20.0000000000000000
  C  O  H
  2  2  4
Cartesian
    8.7448580272853285    9.6928959829830816    9.9065787431635819
   10.1720089669078106   10.0318914169262285   10.1838689261797626
   10.7109266634798317   11.1095880303597596   10.0008181689216151
   10.8598027223990528    8.9884886707323872   10.6831668465070528
    8.2357144928393780   10.5732573383171520    9.5042483561329192
    8.2479445350031710    9.3953755258498717   10.8332253250596011
    8.6916699069570704    8.8904119696402404    9.1667746749403989
   11.7642855071606220    9.3417609276010509   10.8169555550865049
