CO_Cu110
 1.0000000000000000
    10.8300000000000001    0.0000000000000000    0.0000000000000000
     0.0000000000000000    5.1053109601668734    0.0000000000000000
     0.0000000000000000    0.0000000000000000   33.8289832201251528
 Cu  O   C  
  24   1   1
Selective dynamics
Cartesian
  1.8049999999999999  1.2763277400417183 14.9999999999999982   F   F   F
  5.4149999999999991  1.2763277400417183 14.9999999999999982   F   F   F
  9.0249999999999986  1.2763277400417183 14.9999999999999982   F   F   F
  1.8049999999999999  3.8289832201251550 14.9999999999999982   F   F   F
  5.4149999999999991  3.8289832201251550 14.9999999999999982   F   F   F
  9.0249999999999986  3.8289832201251550 14.9999999999999982   F   F   F
  0.0000000000000000  0.0000000000000000 16.2763277400417152   F   F   F
  3.6099999999999999  0.0000000000000000 16.2763277400417152   F   F   F
  7.2199999999999998  0.0000000000000000 16.2763277400417152   F   F   F
  0.0000000000000000  2.5526554800834367 16.2763277400417152   F   F   F
  3.6099999999999999  2.5526554800834367 16.2763277400417152   F   F   F
  7.2199999999999998  2.5526554800834367 16.2763277400417152   F   F   F
  1.7841796706474873  1.2670948302373848 17.5643055780045003   T   T   T
  5.4371258585389954  1.2675808122710279 17.5685632514164389   T   T   T
  9.0270194896632034  1.2752935791501772 17.6158234650955450   T   T   T
  1.8354164331427276  3.8205797462920641 17.6181022288590157   T   T   T
  5.3867625497802702  3.8209259435781595 17.6166718173871715   T   T   T
  9.0283174834731508  3.8280544129957752 17.6079552874939793   T   T   T
  0.0111937938874118  5.0989659073130555 18.7675510708032611   T   T   T
  3.6056743172147248  5.0960523349365321 18.8503655215556911   T   T   T
  7.2160280379495765  5.0972145094828321 18.7666975968042777   T   T   T
  0.0093933588583759  2.5521714403998845 18.7688119702391418   T   T   T
  3.6067835033035802  2.5216979840381835 18.8497286307618701   T   T   T
  7.2165905233776133  2.5546245583942313 18.7675243259203413   T   T   T
  3.9353546681351723  1.2446398510440952 21.4954998852612178   T   T   T
  3.7657437867646371  1.2535723421588540 20.3360351494908009   T   T   T
