CH4_Ir100
 1.0000000000000000
     8.1458701192690270    0.0000000000000000    0.0000000000000000
     0.0000000000000000    8.1458701192690270    0.0000000000000000
     0.0000000000000000    0.0000000000000000   35.7599999999999980
 Ir  C   H  
  36   1   4
Selective dynamics
Cartesian
  1.3576450198781711  1.3576450198781711 15.0000000000000018   F   F   F
  4.0729350596345135  1.3576450198781711 15.0000000000000018   F   F   F
  6.7882250993908553  1.3576450198781711 15.0000000000000018   F   F   F
  1.3576450198781711  4.0729350596345135 15.0000000000000018   F   F   F
  4.0729350596345135  4.0729350596345135 15.0000000000000018   F   F   F
  6.7882250993908553  4.0729350596345135 15.0000000000000018   F   F   F
  1.3576450198781711  6.7882250993908553 15.0000000000000018   F   F   F
  4.0729350596345135  6.7882250993908553 15.0000000000000018   F   F   F
  6.7882250993908553  6.7882250993908553 15.0000000000000018   F   F   F
  0.0000000000000000  0.0000000000000000 16.9200000000000017   F   F   F
  2.7152900397563422  0.0000000000000000 16.9200000000000017   F   F   F
  5.4305800795126844  0.0000000000000000 16.9200000000000017   F   F   F
  0.0000000000000000  2.7152900397563422 16.9200000000000017   F   F   F
  2.7152900397563422  2.7152900397563422 16.9200000000000017   F   F   F
  5.4305800795126844  2.7152900397563422 16.9200000000000017   F   F   F
  0.0000000000000000  5.4305800795126844 16.9200000000000017   F   F   F
  2.7152900397563422  5.4305800795126844 16.9200000000000017   F   F   F
  5.4305800795126844  5.4305800795126844 16.9200000000000017   F   F   F
  1.3553042749015864  1.3601659780212869 18.8887177263600279   T   T   T
  4.0730749307350074  1.3529201216636515 18.8822645195020797   T   T   T
  6.7900137038407706  1.3595758452994113 18.8881647963578665   T   T   T
  1.3555376297131785  4.0705806325865543 18.8886349583302398   T   T   T
  4.0732016178060810  4.0768392963922482 18.8818302382088170   T   T   T
  6.7908248338375836  4.0703825534890195 18.8885175705968251   T   T   T
  1.3615341991411802  6.7884626570535280 18.8815657158459125   T   T   T
  4.0736631669289061  6.7889679917369010 18.8834533043671478   T   T   T
  6.7831457022222130  6.7881827016369058 18.8821770342486204   T   T   T
  0.0004719979941046  8.1409312694512774 20.7400441108995182   T   T   T
  2.7119603491760942  0.0026440375087304 20.7442874796452088   T   T   T
  5.4329404340594145  0.0025486047905971 20.7444050290298314   T   T   T
  0.0000763017143022  2.7151715346931393 20.7487957049917782   T   T   T
  2.7199119819448647  2.7159664146003202 20.7382959642865110   T   T   T
  5.4252987225411493  2.7157769665174816 20.7400950729668594   T   T   T
  0.0008082281755049  5.4353406294595894 20.7380667554762859   T   T   T
  2.7126066501633574  5.4280027691166781 20.7427384813532107   T   T   T
  5.4330153597792261  5.4272399053779496 20.7441439516266506   T   T   T
  0.2850068081079410  2.9797873524558667 23.9110823089916664   T   T   T
  1.3006011814083731  2.7565745407978444 23.5672836960460153   T   T   T
  7.7414968030569371  2.2044976632959488 23.5591587954935520   T   T   T
  8.1200540167401059  3.9570262801393672 23.5260821620322957   T   T   T
  0.2696422587588622  3.0039621218990593 25.0067136067528644   T   T   T
