NO_Rh100
 1.0000000000000000
     8.0673812665573212    0.0000000000000000    0.0000000000000000
     0.0000000000000000    8.0673812665573212    0.0000000000000000
     0.0000000000000000    0.0000000000000000   35.7044999999999959
 Rh  N   O  
  36   1   1
Selective dynamics
Cartesian
  1.3445635444262201  1.3445635444262201 14.9999999999999964   F   F   F
  4.0336906332786597  1.3445635444262201 14.9999999999999964   F   F   F
  6.7228177221311043  1.3445635444262201 14.9999999999999964   F   F   F
  1.3445635444262201  4.0336906332786597 14.9999999999999964   F   F   F
  4.0336906332786597  4.0336906332786597 14.9999999999999964   F   F   F
  6.7228177221311043  4.0336906332786597 14.9999999999999964   F   F   F
  1.3445635444262201  6.7228177221311043 14.9999999999999964   F   F   F
  4.0336906332786597  6.7228177221311043 14.9999999999999964   F   F   F
  6.7228177221311043  6.7228177221311043 14.9999999999999964   F   F   F
  0.0000000000000000  0.0000000000000000 16.9014999999999986   F   F   F
  2.6891270888524401  0.0000000000000000 16.9014999999999986   F   F   F
  5.3782541777048802  0.0000000000000000 16.9014999999999986   F   F   F
  0.0000000000000000  2.6891270888524401 16.9014999999999986   F   F   F
  2.6891270888524401  2.6891270888524401 16.9014999999999986   F   F   F
  5.3782541777048802  2.6891270888524401 16.9014999999999986   F   F   F
  0.0000000000000000  5.3782541777048802 16.9014999999999986   F   F   F
  2.6891270888524401  5.3782541777048802 16.9014999999999986   F   F   F
  5.3782541777048802  5.3782541777048802 16.9014999999999986   F   F   F
  1.3442866469416732  1.3365351586939009 18.8206433128455899   T   T   T
  4.0330707047088410  1.3571962039539647 18.8550539557741352   T   T   T
  6.7224005099334461  1.3574280081048005 18.8552280957367095   T   T   T
  1.3441828288950328  4.0428942065344247 18.8244781283954623   T   T   T
  4.0315905622035251  4.0227296450459038 18.8571144822381775   T   T   T
  6.7238490178384849  4.0226387250675231 18.8573562583543932   T   T   T
  1.3442980781180489  6.7206795602604235 18.8263369310517206   T   T   T
  4.0394050065150653  6.7220836235822023 18.8321412771923100   T   T   T
  6.7167322661643443  6.7220949866222997 18.8320757482943577   T   T   T
  0.0000864969584187  8.0495286943225590 20.6675930092209725   T   T   T
  2.6881181611117402  8.0497011640184688 20.6680258547734503   T   T   T
  5.3779915595383967  0.0035399990647655 20.6942450045535580   T   T   T
  0.0063073679929768  2.6869545185316568 20.8010040240151852   T   T   T
  2.6805171425434948  2.6866177671006319 20.8029566907753782   T   T   T
  5.3777670227474941  2.6894488120300264 20.7296873973578677   T   T   T
  8.0667020256837692  5.4002058067615026 20.6779537188432663   T   T   T
  2.6887843926405588  5.3999513725833284 20.6782640391130030   T   T   T
  5.3779396110412936  5.3683703745487916 20.6996025555708592   T   T   T
  1.3427233106478125  2.5510089470267872 22.1723519631506534   T   T   T
  1.3402320751085883  2.3935007969354447 23.3681485981020707   T   T   T
