CH3OCH3_Au110
 1.0000000000000000
    16.3200000000000003    0.0000000000000000    0.0000000000000000
     0.0000000000000000   11.5399826689644573    0.0000000000000000
     0.0000000000000000    0.0000000000000000   34.3274935008616708
 Au  C   O   H  
  64   2   1   6
Selective dynamics
Cartesian
  2.0400000000000000  1.4424978336205572 14.9999999999999964   F   F   F
  6.1200000000000001  1.4424978336205572 14.9999999999999964   F   F   F
 10.1999999999999922  1.4424978336205572 14.9999999999999964   F   F   F
 14.2800000000000011  1.4424978336205572 14.9999999999999964   F   F   F
  2.0400000000000000  4.3274935008616717 14.9999999999999964   F   F   F
  6.1200000000000001  4.3274935008616717 14.9999999999999964   F   F   F
 10.1999999999999922  4.3274935008616717 14.9999999999999964   F   F   F
 14.2800000000000011  4.3274935008616717 14.9999999999999964   F   F   F
  2.0400000000000000  7.2124891681027856 14.9999999999999964   F   F   F
  6.1200000000000001  7.2124891681027856 14.9999999999999964   F   F   F
 10.1999999999999922  7.2124891681027856 14.9999999999999964   F   F   F
 14.2800000000000011  7.2124891681027856 14.9999999999999964   F   F   F
  2.0400000000000000 10.0974848353439004 14.9999999999999964   F   F   F
  6.1200000000000001 10.0974848353439004 14.9999999999999964   F   F   F
 10.1999999999999922 10.0974848353439004 14.9999999999999964   F   F   F
 14.2800000000000011 10.0974848353439004 14.9999999999999964   F   F   F
  0.0000000000000000  0.0000000000000000 16.4424978336205569   F   F   F
  4.0800000000000001  0.0000000000000000 16.4424978336205569   F   F   F
  8.1600000000000001  0.0000000000000000 16.4424978336205569   F   F   F
 12.2400000000000002  0.0000000000000000 16.4424978336205569   F   F   F
  0.0000000000000000  2.8849956672411143 16.4424978336205569   F   F   F
  4.0800000000000001  2.8849956672411143 16.4424978336205569   F   F   F
  8.1600000000000001  2.8849956672411143 16.4424978336205569   F   F   F
 12.2400000000000002  2.8849956672411143 16.4424978336205569   F   F   F
  0.0000000000000000  5.7699913344822287 16.4424978336205569   F   F   F
  4.0800000000000001  5.7699913344822287 16.4424978336205569   F   F   F
  8.1600000000000001  5.7699913344822287 16.4424978336205569   F   F   F
 12.2400000000000002  5.7699913344822287 16.4424978336205569   F   F   F
  0.0000000000000000  8.6549870017233435 16.4424978336205569   F   F   F
  4.0800000000000001  8.6549870017233435 16.4424978336205569   F   F   F
  8.1600000000000001  8.6549870017233435 16.4424978336205569   F   F   F
 12.2400000000000002  8.6549870017233435 16.4424978336205569   F   F   F
  2.0402466651868134  1.4426711873558944 18.0696550942138039   T   T   T
  6.1164964439817604  1.4413427678368795 18.0680731095397107   T   T   T
 10.2033913667996803  1.4412728394540126 18.0682585779939195   T   T   T
 14.2797644491948184  1.4426824238283105 18.0696415185747199   T   T   T
  2.0397835858086864  4.3275365254300366 18.0694595222771106   T   T   T
  6.1225914021241348  4.3263932785947370 18.0726710305540159   T   T   T
 10.1983686626356214  4.3258334516411265 18.0710016544587297   T   T   T
 14.2803200562392423  4.3274908331793123 18.0694787543637680   T   T   T
  2.0398108478871699  7.2124930296470273 18.0694917454294242   T   T   T
  6.1227958016189357  7.2133863932119198 18.0723502809712713   T   T   T
 10.1982135647885741  7.2139583962251246 18.0708290722903655   T   T   T
 14.2802091973752159  7.2125262591780324 18.0696069956802603   T   T   T
  2.0403329346207371 10.0972440470045868 18.0697279585284534   T   T   T
  6.1165572671383730 10.0983781857519510 18.0679200418270298   T   T   T
 10.2033104549314952 10.0984757335669677 18.0681000775789293   T   T   T
 14.2796987408436280 10.0972394323742005 18.0697106222910087   T   T   T
 16.3199934348535152 11.5399689132986705 19.4102831659094086   T   T   T
  4.0796397805576543  0.0000121070539334 19.4103189227449953   T   T   T
  8.1599496781258711 11.5394096098957792 19.4100559712707224   T   T   T
 12.2403761848932024  0.0000124058665247 19.4102436993514047   T   T   T
  0.0000213840621548  2.8850596330849521 19.4105238828318818   T   T   T
  4.0799623776645886  2.8870778403987312 19.4105118488092288   T   T   T
  8.1601827353645504  2.8687894174573674 19.3989460699506751   T   T   T
 12.2401093673427219  2.8871450577426305 19.4106333203411516   T   T   T
  0.0000251023724351  5.7700259842570558 19.4103118388124365   T   T   T
  4.0796247239208636  5.7699144708303418 19.4093214506905554   T   T   T
  8.1611360335423466  5.7710087108875356 19.3931050135353544   T   T   T
 12.2402783804669024  5.7698120752252899 19.4088802777677181   T   T   T
  0.0000140314109833  8.6549108684580958 19.4105204862862806   T   T   T
  4.0802090255644350  8.6526699601520374 19.4106409058495899   T   T   T
  8.1601936793957535  8.6706007897211617 19.4011859656634229   T   T   T
 12.2398519934838692  8.6526061113999422 19.4107594713726606   T   T   T
  7.0368672545549149  5.7314774271053706 22.9318709551450546   T   T   T
  9.4166857376663078  5.7216290551239730 22.9558659895948303   T   T   T
  8.2348549629476544  5.6796722812797702 22.1535389088420338   T   T   T
  6.9882980868957425  4.8802042660876666 23.6318806377689761   T   T   T
  6.9830991076956996  6.6689474038514440 23.5114634445758135   T   T   T
  6.1861585571602085  5.6799386684251720 22.2434019444572897   T   T   T
  9.4576369736088370  6.6535017958575136 23.5452841412163494   T   T   T
 10.2822324083549201  5.6745873915830058 22.2854660376955032   T   T   T
  9.4431415164733927  4.8625993678539743 23.6468209329264418   T   T   T
