N2_Pt100
 1.0000000000000000
     8.3155757467537992    0.0000000000000000    0.0000000000000000
     0.0000000000000000    8.3155757467537992    0.0000000000000000
     0.0000000000000000    0.0000000000000000   35.8800000000000026
 Pt  N  
  36   2
Selective dynamics
Cartesian
  1.3859292911256331  1.3859292911256331 15.0000000000000018   F   F   F
  4.1577878733768996  1.3859292911256331 15.0000000000000018   F   F   F
  6.9296464556281654  1.3859292911256331 15.0000000000000018   F   F   F
  1.3859292911256331  4.1577878733768996 15.0000000000000018   F   F   F
  4.1577878733768996  4.1577878733768996 15.0000000000000018   F   F   F
  6.9296464556281654  4.1577878733768996 15.0000000000000018   F   F   F
  1.3859292911256331  6.9296464556281654 15.0000000000000018   F   F   F
  4.1577878733768996  6.9296464556281654 15.0000000000000018   F   F   F
  6.9296464556281654  6.9296464556281654 15.0000000000000018   F   F   F
  0.0000000000000000  0.0000000000000000 16.9600000000000009   F   F   F
  2.7718585822512662  0.0000000000000000 16.9600000000000009   F   F   F
  5.5437171645025325  0.0000000000000000 16.9600000000000009   F   F   F
  0.0000000000000000  2.7718585822512662 16.9600000000000009   F   F   F
  2.7718585822512662  2.7718585822512662 16.9600000000000009   F   F   F
  5.5437171645025325  2.7718585822512662 16.9600000000000009   F   F   F
  0.0000000000000000  5.5437171645025325 16.9600000000000009   F   F   F
  2.7718585822512662  5.5437171645025325 16.9600000000000009   F   F   F
  5.5437171645025325  5.5437171645025325 16.9600000000000009   F   F   F
  1.3832158151515517  1.3821974277677807 18.9410511647626372   T   T   T
  4.1607676190718204  1.3828045510599052 18.9406483633261686   T   T   T
  6.9304636459777562  1.3833173589086307 18.9467964869186112   T   T   T
  1.3998272745131775  4.1724939745453096 18.9634206779565950   T   T   T
  4.1444238380370404  4.1715986307986643 18.9611370341660361   T   T   T
  6.9301762648390390  4.1550471218872156 18.9408217438733644   T   T   T
  1.4073346618609683  6.9082693299010884 18.9753160000108707   T   T   T
  4.1387869369544141  6.9109457051204393 18.9716373050603870   T   T   T
  6.9310363911097816  6.9322198582430623 18.9413986836911832   T   T   T
  0.0063567826276894  8.3074679486085063 20.9324823375766407   T   T   T
  2.7731803899804879  0.0348108842224603 20.9345243283451339   T   T   T
  5.5396682076817205  8.3079779551949713 20.9307922183707618   T   T   T
  0.0053368958196122  2.7737117397933231 20.9267316796588787   T   T   T
  2.7725424203446889  2.7616255703254904 20.9156798689632097   T   T   T
  5.5399435374632704  2.7739545023827756 20.9249742804302876   T   T   T
  8.2899645731581693  5.5404719376442655 20.9292428625579916   T   T   T
  2.7652353348038785  5.5670353266944090 21.1138953582365048   T   T   T
  5.5619945776001227  5.5412093202630732 20.9240219950285216   T   T   T
  2.8483249615661608  5.2834061130133270 24.1468430279175195   T   T   T
  2.8141630343486468  5.3913604253057033 23.0251484149341046   T   T   T
