CH3_Rh111
 1.0000000000000000
    10.7565083554097622    0.0000000000000000    0.0000000000000000
     0.0000000000000000    9.3154094918044255    0.0000000000000000
     0.0000000000000000    0.0000000000000000   36.5869892211844387
 Rh  C   H  
  64   1   3
Selective dynamics
Cartesian
  0.0000000000000000  0.0000000000000000 15.0000000000000000   F   F   F
  2.6891270888524406  0.0000000000000000 15.0000000000000000   F   F   F
  5.3782541777048811  0.0000000000000000 15.0000000000000000   F   F   F
  8.0673812665573212  0.0000000000000000 15.0000000000000000   F   F   F
  1.3445635444262203  2.3288523729511064 15.0000000000000000   F   F   F
  4.0336906332786606  2.3288523729511064 15.0000000000000000   F   F   F
  6.7228177221311016  2.3288523729511064 15.0000000000000000   F   F   F
  9.4119448109835417  2.3288523729511064 15.0000000000000000   F   F   F
  0.0000000000000000  4.6577047459022127 15.0000000000000000   F   F   F
  2.6891270888524406  4.6577047459022127 15.0000000000000000   F   F   F
  5.3782541777048811  4.6577047459022127 15.0000000000000000   F   F   F
  8.0673812665573212  4.6577047459022127 15.0000000000000000   F   F   F
  1.3445635444262203  6.9865571188533195 15.0000000000000000   F   F   F
  4.0336906332786606  6.9865571188533195 15.0000000000000000   F   F   F
  6.7228177221311016  6.9865571188533195 15.0000000000000000   F   F   F
  9.4119448109835417  6.9865571188533195 15.0000000000000000   F   F   F
  1.3445635444262203  0.7762841243170354 17.1956630737281486   F   F   F
  4.0336906332786606  0.7762841243170354 17.1956630737281486   F   F   F
  6.7228177221311016  0.7762841243170354 17.1956630737281486   F   F   F
  9.4119448109835417  0.7762841243170354 17.1956630737281486   F   F   F
  0.0000000000000000  3.1051364972681417 17.1956630737281486   F   F   F
  2.6891270888524406  3.1051364972681417 17.1956630737281486   F   F   F
  5.3782541777048811  3.1051364972681417 17.1956630737281486   F   F   F
  8.0673812665573212  3.1051364972681417 17.1956630737281486   F   F   F
  1.3445635444262203  5.4339888702192489 17.1956630737281486   F   F   F
  4.0336906332786606  5.4339888702192489 17.1956630737281486   F   F   F
  6.7228177221311016  5.4339888702192489 17.1956630737281486   F   F   F
  9.4119448109835417  5.4339888702192489 17.1956630737281486   F   F   F
  0.0000000000000000  7.7628412431703548 17.1956630737281486   F   F   F
  2.6891270888524406  7.7628412431703548 17.1956630737281486   F   F   F
  5.3782541777048811  7.7628412431703548 17.1956630737281486   F   F   F
  8.0673812665573212  7.7628412431703548 17.1956630737281486   F   F   F
  0.0028816719845268  1.5521737838011944 19.4033020346211629   T   T   T
  2.6947272290489259  1.5562405644601112 19.4159485660938138   T   T   T
  5.3717843852893834  1.5576093639584121 19.4205660428389919   T   T   T
  8.0637359542683171  1.5520076188714631 19.4042952186018063   T   T   T
  1.3471115054449516  3.8800592040762703 19.4051415013142687   T   T   T
  4.0343556265593135  3.8731205622915472 19.4209257546527461   T   T   T
  6.7202098277516962  3.8803041000774403 19.4062419994320656   T   T   T
  9.4120635097303538  3.8820527703603802 19.4000681182288197   T   T   T
 10.7562198606779127  6.2121764207167676 19.4014571553775923   T   T   T
  2.6906949420962305  6.2066748555696858 19.4022009546874514   T   T   T
  5.3774998876096820  6.2064768672284050 19.4022981237010761   T   T   T
  8.0685524803131337  6.2123562039652427 19.4014035461460068   T   T   T
  1.3469842869951096  8.5419713355778377 19.4033332182116425   T   T   T
  4.0343634491954328  8.5422888463195932 19.4047203423580079   T   T   T
  6.7210719795763492  8.5423770133416674 19.4032092953579074   T   T   T
  9.4124653582974975  8.5398972855926605 19.4038996550161649   T   T   T
  0.0032329111460491  0.0005124538394544 21.5907022801630291   T   T   T
  2.6858159627511933  9.3149910001307745 21.5757988170562811   T   T   T
  5.3844856475155973  9.3123692350879868 21.5764793752611475   T   T   T
  8.0682067435144731  9.3147720756286603 21.5911281730976867   T   T   T
  1.3426753983038207  2.3281838318662738 21.5757892833874294   T   T   T
  4.0330528423466347  2.3283148389724668 21.7080315175085836   T   T   T
  6.7353089860787740  2.3262733762779026 21.5746675146291764   T   T   T
  9.4127446085254256  2.3307350588446911 21.5922835109866753   T   T   T
  0.0021094689006321  4.6564752730580263 21.5883842168628526   T   T   T
  2.6860596573633488  4.6668930122409771 21.5754706444689575   T   T   T
  5.3818287373418947  4.6700552373538340 21.5744156350497462   T   T   T
  8.0682274353525738  4.6577249276264929 21.5880582215059746   T   T   T
  1.3454971931558086  6.9863933595479644 21.5925240744387850   T   T   T
  4.0343462357408244  6.9897095814303327 21.5851554894558220   T   T   T
  6.7240005455085745  6.9865224478867516 21.5919440265425884   T   T   T
  9.4130562587704976  6.9857017530267651 21.5938501603012369   T   T   T
  4.1586353740275159  2.4067589515035399 23.7768357734929481   T   T   T
  3.3270845175788777  3.0277619844310988 24.1485036341244381   T   T   T
  5.1247543160703115  2.8460279914211108 24.0755052659973146   T   T   T
  4.0707182614661201  1.3801080623875110 24.1684363146376278   T   T   T
