CO2_Rh110
 1.0000000000000000
    11.4089999999999989    0.0000000000000000    0.0000000000000000
     0.0000000000000000    5.3782541777048811    0.0000000000000000
     0.0000000000000000    0.0000000000000000   34.0336906332786597
 Rh  C   O  
  24   1   2
Selective dynamics
Cartesian
  1.9014999999999997  1.3445635444262203 15.0000000000000000   F   F   F
  5.7044999999999995  1.3445635444262203 15.0000000000000000   F   F   F
  9.5074999999999985  1.3445635444262203 15.0000000000000000   F   F   F
  1.9014999999999997  4.0336906332786606 15.0000000000000000   F   F   F
  5.7044999999999995  4.0336906332786606 15.0000000000000000   F   F   F
  9.5074999999999985  4.0336906332786606 15.0000000000000000   F   F   F
  0.0000000000000000  0.0000000000000000 16.3445635444262187   F   F   F
  3.8029999999999995  0.0000000000000000 16.3445635444262187   F   F   F
  7.6059999999999990  0.0000000000000000 16.3445635444262187   F   F   F
  0.0000000000000000  2.6891270888524406 16.3445635444262187   F   F   F
  3.8029999999999995  2.6891270888524406 16.3445635444262187   F   F   F
  7.6059999999999990  2.6891270888524406 16.3445635444262187   F   F   F
  1.8929491214930643  1.3437180541002369 17.7290015220724655   T   T   T
  5.7136203160811609  1.3426331623308672 17.7331892808549334   T   T   T
  9.5085609334351613  1.3421555822484346 17.7378521482122764   T   T   T
  1.8916947332747129  4.0341423668140415 17.7259892302722015   T   T   T
  5.7135834315534586  4.0339256655198037 17.7338050907242426   T   T   T
  9.5103688151320629  4.0352490360848705 17.7382219444319063   T   T   T
  0.0059761802724758  0.0016174354705422 18.9976749712549555   T   T   T
  3.7981648187921153  5.3763975461484383 18.9653664564147455   T   T   T
  7.6041614801517143  0.0005007073315063 18.9955533941565484   T   T   T
  0.0061526616393228  2.6891649032369678 18.9861590607913620   T   T   T
  3.7942934611290706  2.6895749216004918 18.9937925902116902   T   T   T
  7.6044914935176724  2.6900361935734085 18.9850527581226807   T   T   T
  4.1964883605461409  1.3715706076486274 21.8824545721134278   T   T   T
  4.0625621633882050  2.4510906573191007 21.4082595715038480   T   T   T
  4.3350571523347430  0.3357206810971499 22.4158310986705551   T   T   T
