CO_Ag111
 1.0000000000000000
     8.6762002051589384    0.0000000000000000    0.0000000000000000
     4.3381001025794710    7.5138097859873962    0.0000000000000000
     0.0000000000000000    0.0000000000000000   37.0840878029567094
 Ag  O   C  
  36   1   1
Selective dynamics
Cartesian
  0.0000000000000000  0.0000000000000000 14.9999999999999982   F   F   F
  2.8920667350529787  0.0000000000000000 14.9999999999999982   F   F   F
  5.7841334701059575  0.0000000000000000 14.9999999999999982   F   F   F
  1.4460333675264903  2.5046032619957987 14.9999999999999982   F   F   F
  4.3381001025794692  2.5046032619957987 14.9999999999999982   F   F   F
  7.2301668376324475  2.5046032619957987 14.9999999999999982   F   F   F
  2.8920667350529805  5.0092065239915975 14.9999999999999982   F   F   F
  5.7841334701059592  5.0092065239915975 14.9999999999999982   F   F   F
  8.6762002051589384  5.0092065239915975 14.9999999999999982   F   F   F
  1.4460333675264898  0.8348677539985995 17.3613626009855686   F   F   F
  4.3381001025794683  0.8348677539985995 17.3613626009855686   F   F   F
  7.2301668376324484  0.8348677539985995 17.3613626009855686   F   F   F
  2.8920667350529801  3.3394710159943979 17.3613626009855686   F   F   F
  5.7841334701059592  3.3394710159943979 17.3613626009855686   F   F   F
  8.6762002051589384  3.3394710159943979 17.3613626009855686   F   F   F
  4.3381001025794710  5.8440742779901944 17.3613626009855686   F   F   F
  7.2301668376324493  5.8440742779901944 17.3613626009855686   F   F   F
 10.1222335726854276  5.8440742779901944 17.3613626009855686   F   F   F
  8.6798742151637143  1.6716452087667200 19.7726627780206243   T   T   T
  2.8922955339151879  1.6752565903980157 19.7803741115488840   T   T   T
  5.7791606329056817  1.6725120168958829 19.7760877174354484   T   T   T
 10.1282168950240692  4.1711884851240866 19.7823746647477741   T   T   T
  4.3332280489072419  4.1715559155395461 19.7810826469798293   T   T   T
  7.2307331422503349  4.1718488328145193 19.7560855612143129   T   T   T
 11.5683649907769510  6.6739927505428547 19.7739013510311601   T   T   T
  5.7813970165753146  6.6805259355839084 19.7551415144506208   T   T   T
  8.6786333448928339  6.6796971927464552 19.7560276804590984   T   T   T
  4.3424240911894447  7.5106124721599539 22.1935884857306753   T   T   T
  7.2304255463913050  7.5026564840888614 22.1690417584836936   T   T   T
 10.1198354392665770  7.5095084461352037 22.1931289959398441   T   T   T
 10.0868884259506402  2.4853608480575637 22.2128074046868456   T   T   T
  4.3779634801066152  2.4817379507502895 22.2138117669949544   T   T   T
  7.2320761619976919  2.5086465962608533 22.1930239061338632   T   T   T
 11.5673852783729458  5.0479612290253435 22.2174388235606841   T   T   T
  5.7940272490866320  5.0147075090271196 22.1693592864377855   T   T   T
  8.6712145815021771  5.0121728245328141 22.1734597960755160   T   T   T
  2.9465461500202395  3.2957644023998158 25.0591041859964605   T   T   T
  2.9555566650005858  3.2949630172288207 23.8943070382388711   T   T   T
