CH3COOH_Rh100
 1.0000000000000000
     8.0673812665573212    0.0000000000000000    0.0000000000000000
     0.0000000000000000    8.0673812665573212    0.0000000000000000
     0.0000000000000000    0.0000000000000000   35.7044999999999959
 Rh  C   O   H  
  36   2   2   4
Selective dynamics
Cartesian
  1.3445635444262201  1.3445635444262201 14.9999999999999964   F   F   F
  4.0336906332786597  1.3445635444262201 14.9999999999999964   F   F   F
  6.7228177221311043  1.3445635444262201 14.9999999999999964   F   F   F
  1.3445635444262201  4.0336906332786597 14.9999999999999964   F   F   F
  4.0336906332786597  4.0336906332786597 14.9999999999999964   F   F   F
  6.7228177221311043  4.0336906332786597 14.9999999999999964   F   F   F
  1.3445635444262201  6.7228177221311043 14.9999999999999964   F   F   F
  4.0336906332786597  6.7228177221311043 14.9999999999999964   F   F   F
  6.7228177221311043  6.7228177221311043 14.9999999999999964   F   F   F
  0.0000000000000000  0.0000000000000000 16.9014999999999986   F   F   F
  2.6891270888524401  0.0000000000000000 16.9014999999999986   F   F   F
  5.3782541777048802  0.0000000000000000 16.9014999999999986   F   F   F
  0.0000000000000000  2.6891270888524401 16.9014999999999986   F   F   F
  2.6891270888524401  2.6891270888524401 16.9014999999999986   F   F   F
  5.3782541777048802  2.6891270888524401 16.9014999999999986   F   F   F
  0.0000000000000000  5.3782541777048802 16.9014999999999986   F   F   F
  2.6891270888524401  5.3782541777048802 16.9014999999999986   F   F   F
  5.3782541777048802  5.3782541777048802 16.9014999999999986   F   F   F
  1.3454766025353837  1.3456281699507426 18.8402156444518560   T   T   T
  4.0318276897918679  1.3434305686388792 18.8376265155366092   T   T   T
  6.7238719139775061  1.3446282368084972 18.8384152018492337   T   T   T
  1.3430802894424441  4.0324773938760714 18.8362797321171378   T   T   T
  4.0473387738979882  4.0468398863412611 18.8535084383914331   T   T   T
  6.7142783519202505  4.0430251182741825 18.8490723668931750   T   T   T
  1.3446546284124055  6.7249732887671474 18.8359235179854316   T   T   T
  4.0446580088827284  6.7099650882237993 18.8546012598753201   T   T   T
  6.7181185448340734  6.7169935387542150 18.8460222198124505   T   T   T
  8.0665243611038164  8.0623847594113602 20.6867717158486819   T   T   T
  2.6921837199434724  8.0611844625777298 20.6905849019626302   T   T   T
  5.3783952898822047  0.0124090074310004 20.6796821562584867   T   T   T
  8.0640957168981053  2.6952163933908579 20.6915346387998511   T   T   T
  2.6949776873128184  2.6946494847913196 20.6876249674024884   T   T   T
  5.3792180098840134  2.6802264066095312 20.6767894233986631   T   T   T
  0.0185367399667758  5.3769868512428891 20.6750950695082985   T   T   T
  2.6833684993241094  5.3707740066380056 20.6791002056581412   T   T   T
  5.3642338163866601  5.3758782269188758 20.7845322028809107   T   T   T
  5.6453830317565155  5.2250597539772210 25.2061802649647646   T   T   T
  5.1070464973473992  5.1651265080206157 23.8175246716154803   T   T   T
  5.7808135584921212  5.5645197430830322 22.8362976231691235   T   T   T
  3.8900955046592021  4.6679822306521510 23.7140607558318663   T   T   T
  4.8858952787206897  5.6291376999682763 25.8815489287080389   T   T   T
  6.5577306380826128  5.8195489242404559 25.2403657983512275   T   T   T
  5.8645372255818655  4.2049457252697779 25.5445737005219016   T   T   T
  3.6021343467273801  4.7153941210655343 22.7314937525784728   T   T   T
