CH4_Cu100
 1.0000000000000000
    10.2106219203337467    0.0000000000000000    0.0000000000000000
     0.0000000000000000   10.2106219203337467    0.0000000000000000
     0.0000000000000000    0.0000000000000000   35.4149999999999991
 Cu  C   H  
  64   1   4
Selective dynamics
Cartesian
  1.2763277400417183  1.2763277400417183 15.0000000000000000   F   F   F
  3.8289832201251550  1.2763277400417183 15.0000000000000000   F   F   F
  6.3816387002085921  1.2763277400417183 15.0000000000000000   F   F   F
  8.9342941802920279  1.2763277400417183 15.0000000000000000   F   F   F
  1.2763277400417183  3.8289832201251550 15.0000000000000000   F   F   F
  3.8289832201251550  3.8289832201251550 15.0000000000000000   F   F   F
  6.3816387002085921  3.8289832201251550 15.0000000000000000   F   F   F
  8.9342941802920279  3.8289832201251550 15.0000000000000000   F   F   F
  1.2763277400417183  6.3816387002085921 15.0000000000000000   F   F   F
  3.8289832201251550  6.3816387002085921 15.0000000000000000   F   F   F
  6.3816387002085921  6.3816387002085921 15.0000000000000000   F   F   F
  8.9342941802920279  6.3816387002085921 15.0000000000000000   F   F   F
  1.2763277400417183  8.9342941802920279 15.0000000000000000   F   F   F
  3.8289832201251550  8.9342941802920279 15.0000000000000000   F   F   F
  6.3816387002085921  8.9342941802920279 15.0000000000000000   F   F   F
  8.9342941802920279  8.9342941802920279 15.0000000000000000   F   F   F
  0.0000000000000000  0.0000000000000000 16.8049999999999997   F   F   F
  2.5526554800834367  0.0000000000000000 16.8049999999999997   F   F   F
  5.1053109601668734  0.0000000000000000 16.8049999999999997   F   F   F
  7.6579664402503100  0.0000000000000000 16.8049999999999997   F   F   F
  0.0000000000000000  2.5526554800834367 16.8049999999999997   F   F   F
  2.5526554800834367  2.5526554800834367 16.8049999999999997   F   F   F
  5.1053109601668734  2.5526554800834367 16.8049999999999997   F   F   F
  7.6579664402503100  2.5526554800834367 16.8049999999999997   F   F   F
  0.0000000000000000  5.1053109601668734 16.8049999999999997   F   F   F
  2.5526554800834367  5.1053109601668734 16.8049999999999997   F   F   F
  5.1053109601668734  5.1053109601668734 16.8049999999999997   F   F   F
  7.6579664402503100  5.1053109601668734 16.8049999999999997   F   F   F
  0.0000000000000000  7.6579664402503100 16.8049999999999997   F   F   F
  2.5526554800834367  7.6579664402503100 16.8049999999999997   F   F   F
  5.1053109601668734  7.6579664402503100 16.8049999999999997   F   F   F
  7.6579664402503100  7.6579664402503100 16.8049999999999997   F   F   F
  1.2762022282055778  1.2763643402458622 18.6319352511396126   T   T   T
  3.8290792914902410  1.2763723561279532 18.6319464343796817   T   T   T
  6.3817162093191708  1.2762354749434344 18.6316471434518398   T   T   T
  8.9342268417359492  1.2762621003339167 18.6316553479742844   T   T   T
  1.2764844444304473  3.8291017540168988 18.6327759553325620   T   T   T
  3.8287783919066474  3.8290895962504776 18.6326409399502708   T   T   T
  6.3816714703994091  3.8289186195305702 18.6318630787061359   T   T   T
  8.9342755900138098  3.8288879728743206 18.6317205870393856   T   T   T
  1.2764054668788083  6.3814513376746307 18.6324308281202917   T   T   T
  3.8288227948737710  6.3813608420847521 18.6326801703486566   T   T   T
  6.3816956031021972  6.3817531357524926 18.6317054658675652   T   T   T
  8.9342146070707500  6.3817899532998030 18.6316326341581764   T   T   T
  1.2762615521596381  8.9343307204977709 18.6316792408564389   T   T   T
  3.8290670858367108  8.9343195003981180 18.6316883162346301   T   T   T
  6.3816135569402226  8.9342835595675858 18.6317428612685774   T   T   T
  8.9343119741155448  8.9342785132925098 18.6317306025036444   T   T   T
  0.0000665685211301  0.0001460872767595 20.4071183378525376   T   T   T
  2.5527059095718538  0.0003607213757488 20.4074619907053112   T   T   T
  5.1052534290591067  0.0000170827610899 20.4071437909201059   T   T   T
  7.6579748988597469 10.2105694113531946 20.4070019515226413   T   T   T
  0.0000398324521339  2.5526216479698092 20.4064740563633578   T   T   T
  2.5526931355530547  2.5529155462829753 20.4061033004684482   T   T   T
  5.1052818215953497  2.5527249148686724 20.4063796054538749   T   T   T
  7.6580075288787555  2.5527424295129872 20.4072426738712274   T   T   T
 10.2105455269086249  5.1054179267260125 20.4059216104109282   T   T   T
  2.5526889152030288  5.1050073939421168 20.4061836516691422   T   T   T
  5.1052985329258780  5.1052659858778098 20.4061853092098708   T   T   T
  7.6579616098925447  5.1052235539549660 20.4072586344298372   T   T   T
  0.0003063829704077  7.6576005026303164 20.4073983180561065   T   T   T
  2.5526276164345103  7.6578766026202150 20.4067233491141735   T   T   T
  5.1051447174723661  7.6578437400270518 20.4071666217442598   T   T   T
  7.6579868389961767  7.6580179784360896 20.4069910723485215   T   T   T
  2.6832500283806251  4.3421033583711539 23.9995307837712346   T   T   T
  3.0843294742528600  5.3105270292641302 23.6849895571214049   T   T   T
  1.7059429032288762  4.1778536447574437 23.5352352517024954   T   T   T
  2.5700141291469110  4.3353426072488368 25.0918683493839296   T   T   T
  3.3712824371893628  3.5442151067273095 23.7034782259087002   T   T   T
