H2O_Ir110
 1.0000000000000000
    11.5199999999999996    0.0000000000000000    0.0000000000000000
     0.0000000000000000    5.4305800795126853    0.0000000000000000
     0.0000000000000000    0.0000000000000000   34.0729350596345171
 Ir  O   H  
  24   1   2
Selective dynamics
Cartesian
  1.9199999999999999  1.3576450198781711 15.0000000000000018   F   F   F
  5.7599999999999989  1.3576450198781711 15.0000000000000018   F   F   F
  9.5999999999999996  1.3576450198781711 15.0000000000000018   F   F   F
  1.9199999999999999  4.0729350596345135 15.0000000000000018   F   F   F
  5.7599999999999989  4.0729350596345135 15.0000000000000018   F   F   F
  9.5999999999999996  4.0729350596345135 15.0000000000000018   F   F   F
  0.0000000000000000  0.0000000000000000 16.3576450198781735   F   F   F
  3.8399999999999999  0.0000000000000000 16.3576450198781735   F   F   F
  7.6799999999999997  0.0000000000000000 16.3576450198781735   F   F   F
  0.0000000000000000  2.7152900397563422 16.3576450198781735   F   F   F
  3.8399999999999999  2.7152900397563422 16.3576450198781735   F   F   F
  7.6799999999999997  2.7152900397563422 16.3576450198781735   F   F   F
  1.9194353217841948  1.3696179188140547 17.7755482851539170   T   T   T
  5.7657344123213479  1.3565627655678900 17.7687050377266011   T   T   T
  9.6031140061547671  1.3516152186430634 17.7791296829405070   T   T   T
  1.9185246917257510  4.0698362890470481 17.7677155033676648   T   T   T
  5.7593357437382497  4.0751491718233552 17.7683677316164719   T   T   T
  9.6025578232428224  4.0767232703996532 17.7805557645421111   T   T   T
  0.0078092984977202  0.0005456421072386 19.0084295508951548   T   T   T
  3.8272136726506094  0.0060399405262694 18.9786394695249072   T   T   T
  7.6799464669578965  5.4262795740585021 19.0131796717949335   T   T   T
  0.0074618554454255  2.7157990337518378 19.0026624674456848   T   T   T
  3.8139059911636308  2.7123039234628035 19.0259598062447246   T   T   T
  7.6893815280010287  2.7114558785512268 18.9962565748407144   T   T   T
  4.8408244865384420  2.8029226628919752 20.9887710673443237   T   T   T
  5.7850617442765415  2.5502657369149611 20.7918524950499766   T   T   T
  4.8707965677921763  3.7651510724106134 21.1921894843164580   T   T   T
