CO_Rh111
 1.0000000000000000
    10.7565083554097622    0.0000000000000000    0.0000000000000000
     0.0000000000000000    9.3154094918044255    0.0000000000000000
     0.0000000000000000    0.0000000000000000   36.5869892211844387
 Rh  O   C  
  64   1   1
Selective dynamics
Cartesian
  0.0000000000000000  0.0000000000000000 15.0000000000000000   F   F   F
  2.6891270888524406  0.0000000000000000 15.0000000000000000   F   F   F
  5.3782541777048811  0.0000000000000000 15.0000000000000000   F   F   F
  8.0673812665573212  0.0000000000000000 15.0000000000000000   F   F   F
  1.3445635444262203  2.3288523729511064 15.0000000000000000   F   F   F
  4.0336906332786606  2.3288523729511064 15.0000000000000000   F   F   F
  6.7228177221311016  2.3288523729511064 15.0000000000000000   F   F   F
  9.4119448109835417  2.3288523729511064 15.0000000000000000   F   F   F
  0.0000000000000000  4.6577047459022127 15.0000000000000000   F   F   F
  2.6891270888524406  4.6577047459022127 15.0000000000000000   F   F   F
  5.3782541777048811  4.6577047459022127 15.0000000000000000   F   F   F
  8.0673812665573212  4.6577047459022127 15.0000000000000000   F   F   F
  1.3445635444262203  6.9865571188533195 15.0000000000000000   F   F   F
  4.0336906332786606  6.9865571188533195 15.0000000000000000   F   F   F
  6.7228177221311016  6.9865571188533195 15.0000000000000000   F   F   F
  9.4119448109835417  6.9865571188533195 15.0000000000000000   F   F   F
  1.3445635444262203  0.7762841243170354 17.1956630737281486   F   F   F
  4.0336906332786606  0.7762841243170354 17.1956630737281486   F   F   F
  6.7228177221311016  0.7762841243170354 17.1956630737281486   F   F   F
  9.4119448109835417  0.7762841243170354 17.1956630737281486   F   F   F
  0.0000000000000000  3.1051364972681417 17.1956630737281486   F   F   F
  2.6891270888524406  3.1051364972681417 17.1956630737281486   F   F   F
  5.3782541777048811  3.1051364972681417 17.1956630737281486   F   F   F
  8.0673812665573212  3.1051364972681417 17.1956630737281486   F   F   F
  1.3445635444262203  5.4339888702192489 17.1956630737281486   F   F   F
  4.0336906332786606  5.4339888702192489 17.1956630737281486   F   F   F
  6.7228177221311016  5.4339888702192489 17.1956630737281486   F   F   F
  9.4119448109835417  5.4339888702192489 17.1956630737281486   F   F   F
  0.0000000000000000  7.7628412431703548 17.1956630737281486   F   F   F
  2.6891270888524406  7.7628412431703548 17.1956630737281486   F   F   F
  5.3782541777048811  7.7628412431703548 17.1956630737281486   F   F   F
  8.0673812665573212  7.7628412431703548 17.1956630737281486   F   F   F
  0.0028884439206682  1.5560054593065247 19.4026612430625960   T   T   T
  2.6902204823587197  1.5576421282783544 19.4019961002488621   T   T   T
  5.3772995512311237  1.5558907992104103 19.4027708190040116   T   T   T
  8.0682770310901848  1.5565238349741453 19.4036956622611498   T   T   T
  1.3495138414780716  3.8927149392479294 19.4155083050440354   T   T   T
  4.0302918808299273  3.8928528462627932 19.4158244738668841   T   T   T
  6.7223038758135463  3.8866477518512825 19.4019522387011101   T   T   T
  9.4139868392546369  3.8866178688909261 19.4020681212065007   T   T   T
  0.0107021690069228  6.2121916397301300 19.4129895013168863   T   T   T
  2.6898071195648172  6.2129937677976441 19.3953716714067923   T   T   T
  5.3689643006621148  6.2121548237901090 19.4128589074172027   T   T   T
  8.0679846088530613  6.2132712087031088 19.4035997287325479   T   T   T
  1.3501684461675452  8.5340684679173684 19.4136664014551279   T   T   T
  4.0296979986502350  8.5342276168075806 19.4132506466343315   T   T   T
  6.7218966394130009  8.5406385952917478 19.4019292710083882   T   T   T
  9.4146514157355821  8.5407004460638909 19.4020494192750981   T   T   T
 10.7562336098276301  9.3105178559647079 21.5886281011779779   T   T   T
  2.6900308539449056  0.0269243941811140 21.5791130701561542   T   T   T
  5.3807762823175542  9.3105570870575161 21.5888675718013303   T   T   T
  8.0684790426067252  0.0059652389387425 21.5882798357014352   T   T   T
  1.3466973504437849  2.3368963214501433 21.5902306632599590   T   T   T
  4.0342389140604773  2.3368981831608027 21.5901737600938084   T   T   T
  6.7249247535590033  2.3313954678723641 21.5900670906125498   T   T   T
  9.4122010748496887  2.3314858435761900 21.5901702327035281   T   T   T
 10.7363645909189316  4.6498332308960819 21.5831154278814381   T   T   T
  2.6901439646767393  4.6607504742619117 21.6547747983720811   T   T   T
  5.4003637251429026  4.6495460095207184 21.5833372721267835   T   T   T
  8.0683510011096402  4.6665991082569507 21.5912485194407004   T   T   T
  1.3444332903838327  6.9897526585154850 21.6487807220767117   T   T   T
  4.0368224414867431  6.9903568191150667 21.6489489804850521   T   T   T
  6.7146385007951670  6.9948979500390767 21.5895711249698152   T   T   T
  9.4217281559875072  6.9949887275092104 21.5892311274881905   T   T   T
  2.6937335663224222  6.2374418745508455 24.2337195271271533   T   T   T
  2.6941013185274114  6.2220807633885844 23.0323826342050495   T   T   T
