SO2_Rh110
 1.0000000000000000
    11.4089999999999989    0.0000000000000000    0.0000000000000000
     0.0000000000000000    5.3782541777048811    0.0000000000000000
     0.0000000000000000    0.0000000000000000   34.0336906332786597
 Rh  S   O  
  24   1   2
Selective dynamics
Cartesian
  1.9014999999999997  1.3445635444262203 15.0000000000000000   F   F   F
  5.7044999999999995  1.3445635444262203 15.0000000000000000   F   F   F
  9.5074999999999985  1.3445635444262203 15.0000000000000000   F   F   F
  1.9014999999999997  4.0336906332786606 15.0000000000000000   F   F   F
  5.7044999999999995  4.0336906332786606 15.0000000000000000   F   F   F
  9.5074999999999985  4.0336906332786606 15.0000000000000000   F   F   F
  0.0000000000000000  0.0000000000000000 16.3445635444262187   F   F   F
  3.8029999999999995  0.0000000000000000 16.3445635444262187   F   F   F
  7.6059999999999990  0.0000000000000000 16.3445635444262187   F   F   F
  0.0000000000000000  2.6891270888524406 16.3445635444262187   F   F   F
  3.8029999999999995  2.6891270888524406 16.3445635444262187   F   F   F
  7.6059999999999990  2.6891270888524406 16.3445635444262187   F   F   F
  1.9066318155797271  1.3572842591919487 17.7306062861697527   T   T   T
  5.7021570413136438  1.3442880611352757 17.6530799016111359   T   T   T
  9.5033701388800793  1.3576208046057172 17.7360743552744182   T   T   T
  1.9070987088385007  4.0522996670160953 17.7209416792678454   T   T   T
  5.7049537540147313  4.0445346593334985 17.7051305267045329   T   T   T
  9.4991706271487928  4.0196681710020954 17.7452967693452841   T   T   T
  0.0037125621288173  0.0092146400382323 18.9853062792180118   T   T   T
  3.8181874639708742  0.0067146846232014 19.0113644432343172   T   T   T
  7.6230452303591862  5.3615722600977085 18.9586355211906579   T   T   T
  0.0111930095158606  2.6968421618470999 18.9841007952241192   T   T   T
  3.8248772153061887  2.7233132022014779 19.0253245547371073   T   T   T
  7.5715303306356558  2.6680277283231364 19.0332626347984615   T   T   T
  4.9352742200722064  2.1007091538258553 20.8632442191494114   T   T   T
  4.7359469570129935  0.5517082352464282 20.8171250227955795   T   T   T
  6.4558453775761091  2.4036093724635621 20.7843379737906098   T   T   T
