H2CO_Rh111
 1.0000000000000000
    10.7565083554097622    0.0000000000000000    0.0000000000000000
     0.0000000000000000    9.3154094918044255    0.0000000000000000
     0.0000000000000000    0.0000000000000000   36.5869892211844387
 Rh  C   O   H  
  64   1   1   2
Selective dynamics
Cartesian
  0.0000000000000000  0.0000000000000000 15.0000000000000000   F   F   F
  2.6891270888524406  0.0000000000000000 15.0000000000000000   F   F   F
  5.3782541777048811  0.0000000000000000 15.0000000000000000   F   F   F
  8.0673812665573212  0.0000000000000000 15.0000000000000000   F   F   F
  1.3445635444262203  2.3288523729511064 15.0000000000000000   F   F   F
  4.0336906332786606  2.3288523729511064 15.0000000000000000   F   F   F
  6.7228177221311016  2.3288523729511064 15.0000000000000000   F   F   F
  9.4119448109835417  2.3288523729511064 15.0000000000000000   F   F   F
  0.0000000000000000  4.6577047459022127 15.0000000000000000   F   F   F
  2.6891270888524406  4.6577047459022127 15.0000000000000000   F   F   F
  5.3782541777048811  4.6577047459022127 15.0000000000000000   F   F   F
  8.0673812665573212  4.6577047459022127 15.0000000000000000   F   F   F
  1.3445635444262203  6.9865571188533195 15.0000000000000000   F   F   F
  4.0336906332786606  6.9865571188533195 15.0000000000000000   F   F   F
  6.7228177221311016  6.9865571188533195 15.0000000000000000   F   F   F
  9.4119448109835417  6.9865571188533195 15.0000000000000000   F   F   F
  1.3445635444262203  0.7762841243170354 17.1956630737281486   F   F   F
  4.0336906332786606  0.7762841243170354 17.1956630737281486   F   F   F
  6.7228177221311016  0.7762841243170354 17.1956630737281486   F   F   F
  9.4119448109835417  0.7762841243170354 17.1956630737281486   F   F   F
  0.0000000000000000  3.1051364972681417 17.1956630737281486   F   F   F
  2.6891270888524406  3.1051364972681417 17.1956630737281486   F   F   F
  5.3782541777048811  3.1051364972681417 17.1956630737281486   F   F   F
  8.0673812665573212  3.1051364972681417 17.1956630737281486   F   F   F
  1.3445635444262203  5.4339888702192489 17.1956630737281486   F   F   F
  4.0336906332786606  5.4339888702192489 17.1956630737281486   F   F   F
  6.7228177221311016  5.4339888702192489 17.1956630737281486   F   F   F
  9.4119448109835417  5.4339888702192489 17.1956630737281486   F   F   F
  0.0000000000000000  7.7628412431703548 17.1956630737281486   F   F   F
  2.6891270888524406  7.7628412431703548 17.1956630737281486   F   F   F
  5.3782541777048811  7.7628412431703548 17.1956630737281486   F   F   F
  8.0673812665573212  7.7628412431703548 17.1956630737281486   F   F   F
  0.0010568509747299  1.5524996993532734 19.4032839910108272   T   T   T
  2.6896078338124765  1.5534393387681964 19.3978216517798820   T   T   T
  5.3785501320372866  1.5541426078395353 19.4005080736342670   T   T   T
  8.0708972121638975  1.5567085348034706 19.4003033969096101   T   T   T
  1.3480924635090181  3.8780494619391943 19.4001887066706828   T   T   T
  4.0568127065557587  3.8869384889354057 19.4423291927965458   T   T   T
  6.7330905297784795  3.8862302001831406 19.4378181849900429   T   T   T
  9.4091042102614040  3.8771273335023895 19.4132244540686294   T   T   T
 10.7552841431855164  6.2071351504557759 19.4012097859295274   T   T   T
  2.6893874636165376  6.2067444043745974 19.3979375669616587   T   T   T
  5.3790621669650891  6.1946918047218427 19.4320387018472793   T   T   T
  8.0668423069487236  6.1944930445269932 19.4202771789525350   T   T   T
  1.3434751752566021  8.5388736061179475 19.3990815394113980   T   T   T
  4.0351484194490190  8.5380443951050538 19.3964817186622263   T   T   T
  6.7216465371244301  8.5363699014016561 19.3960309040952019   T   T   T
  9.4111831378646169  8.5337254858476594 19.4017387511068051   T   T   T
  0.0053365065587462  9.3099511694778592 21.5903921989121983   T   T   T
  2.6864340241906635  9.3113306232319104 21.5887666413079984   T   T   T
  5.3686715717861953  9.3091819485304566 21.5848097169451592   T   T   T
  8.0730446720863824  9.3063640488785282 21.5842142898957334   T   T   T
  1.3480577306076289  2.3287098894931346 21.5866462400496957   T   T   T
  4.0245556353621028  2.3091722466825666 21.5866632250735222   T   T   T
  6.7294825062741044  2.2870474210412448 21.5579524074366944   T   T   T
  9.4224397608240160  2.3148415521429073 21.5833664363795634   T   T   T
  0.0013189413190274  4.6580594337486545 21.5851431356992478   T   T   T
  2.6791761534267455  4.6580873367061182 21.5911171449304682   T   T   T
  5.3751372014038434  4.6632815700926313 21.6945363211262610   T   T   T
  8.0886360321882442  4.6479430903337047 21.6981612100173749   T   T   T
  1.3427902886971332  6.9813744202908969 21.5860088352279718   T   T   T
  4.0209103098191568  6.9986739869035288 21.5856360119328876   T   T   T
  6.7256426304608690  7.0150317855683522 21.5613385949165739   T   T   T
  9.4152290122165567  6.9814998858376400 21.5903423402259911   T   T   T
  7.2571978262138508  4.4640178320617245 23.6144439666527255   T   T   T
  5.9281785895531760  4.6744723264300063 23.6053832338535337   T   T   T
  7.8378384908411398  5.2348211421858464 24.1775210994036698   T   T   T
  7.5384529918979224  3.4363149741512893 23.9553840638495039   T   T   T
