C2H6_Rh100
 1.0000000000000000
     8.0673812665573212    0.0000000000000000    0.0000000000000000
     0.0000000000000000    8.0673812665573212    0.0000000000000000
     0.0000000000000000    0.0000000000000000   35.7044999999999959
 Rh  C   H  
  36   2   6
Selective dynamics
Cartesian
  1.3445635444262201  1.3445635444262201 14.9999999999999964   F   F   F
  4.0336906332786597  1.3445635444262201 14.9999999999999964   F   F   F
  6.7228177221311043  1.3445635444262201 14.9999999999999964   F   F   F
  1.3445635444262201  4.0336906332786597 14.9999999999999964   F   F   F
  4.0336906332786597  4.0336906332786597 14.9999999999999964   F   F   F
  6.7228177221311043  4.0336906332786597 14.9999999999999964   F   F   F
  1.3445635444262201  6.7228177221311043 14.9999999999999964   F   F   F
  4.0336906332786597  6.7228177221311043 14.9999999999999964   F   F   F
  6.7228177221311043  6.7228177221311043 14.9999999999999964   F   F   F
  0.0000000000000000  0.0000000000000000 16.9014999999999986   F   F   F
  2.6891270888524401  0.0000000000000000 16.9014999999999986   F   F   F
  5.3782541777048802  0.0000000000000000 16.9014999999999986   F   F   F
  0.0000000000000000  2.6891270888524401 16.9014999999999986   F   F   F
  2.6891270888524401  2.6891270888524401 16.9014999999999986   F   F   F
  5.3782541777048802  2.6891270888524401 16.9014999999999986   F   F   F
  0.0000000000000000  5.3782541777048802 16.9014999999999986   F   F   F
  2.6891270888524401  5.3782541777048802 16.9014999999999986   F   F   F
  5.3782541777048802  5.3782541777048802 16.9014999999999986   F   F   F
  1.3517482034360930  1.3454185117077762 18.8490394090363367   T   T   T
  4.0270297134541453  1.3442594512871158 18.8499164949575331   T   T   T
  6.7235809369148258  1.3449984420390029 18.8379784193100619   T   T   T
  1.3475240006762461  4.0319372971169569 18.8449139047807535   T   T   T
  4.0326962111497480  4.0328455289187648 18.8456085002786899   T   T   T
  6.7243270173744421  4.0377106301239358 18.8404714536763827   T   T   T
  1.3455292198948026  6.7235421363994146 18.8450511860073675   T   T   T
  4.0304083546548197  6.7242240450299695 18.8444132286543002   T   T   T
  6.7222836452635102  6.7188736726748273 18.8396406812913604   T   T   T
  8.0664831147967870  0.0041579466913476 20.6860512645019377   T   T   T
  2.6864230908245457  8.0596358562702104 20.7100187135155629   T   T   T
  5.3855131232588551  0.0035980069726837 20.6814114677196699   T   T   T
  8.0643413655364515  2.6840836559286396 20.6880483383174898   T   T   T
  2.6894510223079391  2.6979057451105870 20.7093930019800290   T   T   T
  5.3813298029855421  2.6847704651825746 20.6848383662242732   T   T   T
  0.0060751219104919  5.3788271967866379 20.6931366870298383   T   T   T
  2.6895585753833262  5.3785589731002377 20.6887397152320922   T   T   T
  5.3717276247975159  5.3779796710722652 20.6929205596811379   T   T   T
  2.7255333065322036  2.1296583621490388 23.7069509845692714   T   T   T
  2.9849916778939667  0.6281095000367299 23.6782637430502909   T   T   T
  3.6392319675127904  2.7101577154083270 23.5088133255997569   T   T   T
  1.9473582463197003  2.4250502449507612 22.9701881531223719   T   T   T
  2.3305447253270537  2.4532440181176942 24.6825521651004216   T   T   T
  3.5614303387644157  0.2971870057283874 24.5550996912488060   T   T   T
  3.6198713919151366  0.3398188434613048 22.8087437984984973   T   T   T
  2.0533069241032522  0.0455394400648637 23.6409374371932195   T   T   T
