HCOOH_Ir110
 1.0000000000000000
    11.5199999999999996    0.0000000000000000    0.0000000000000000
     0.0000000000000000    5.4305800795126853    0.0000000000000000
     0.0000000000000000    0.0000000000000000   34.0729350596345171
 Ir  O   C   H  
  24   2   1   2
Selective dynamics
Cartesian
  1.9199999999999999  1.3576450198781711 15.0000000000000018   F   F   F
  5.7599999999999989  1.3576450198781711 15.0000000000000018   F   F   F
  9.5999999999999996  1.3576450198781711 15.0000000000000018   F   F   F
  1.9199999999999999  4.0729350596345135 15.0000000000000018   F   F   F
  5.7599999999999989  4.0729350596345135 15.0000000000000018   F   F   F
  9.5999999999999996  4.0729350596345135 15.0000000000000018   F   F   F
  0.0000000000000000  0.0000000000000000 16.3576450198781735   F   F   F
  3.8399999999999999  0.0000000000000000 16.3576450198781735   F   F   F
  7.6799999999999997  0.0000000000000000 16.3576450198781735   F   F   F
  0.0000000000000000  2.7152900397563422 16.3576450198781735   F   F   F
  3.8399999999999999  2.7152900397563422 16.3576450198781735   F   F   F
  7.6799999999999997  2.7152900397563422 16.3576450198781735   F   F   F
  1.9142853752090667  1.3638270849587999 17.7776301376305206   T   T   T
  5.7607315052164179  1.3622663628799838 17.7803035267391145   T   T   T
  9.6102633688302994  1.3580463749408784 17.7609212829235297   T   T   T
  1.9181563468738205  4.0704335532807061 17.7777469846198635   T   T   T
  5.7606014051670131  4.0770245231490101 17.7715978891499411   T   T   T
  9.6058057567933801  4.0792737882862280 17.7665363548828843   T   T   T
 11.5106426210863155  0.0006531051486226 19.0028134167724545   T   T   T
  3.8372089792287882  0.0033566938933163 18.9966599244386352   T   T   T
  7.7051909385248365  5.4213189522127569 19.0283702583726217   T   T   T
 11.5076865276587004  2.7204721819196873 19.0091497875958204   T   T   T
  3.8435560629045784  2.7183681355562315 19.0057978252327331   T   T   T
  7.7043914174205677  2.7279402153016741 18.9790279869187266   T   T   T
  6.8712254057426216  3.4323331432170936 21.7717928372388982   T   T   T
  7.1276869391186244  0.1419100153382790 21.0297232664296132   T   T   T
  6.7944269690720267  4.7031649005651808 21.8859409807402052   T   T   T
  7.2477263790593964  3.1640069901644572 20.6798624199981127   T   T   T
  6.3837857314201063  5.0755326974417523 22.8363548311239981   T   T   T
