NO_Cu100
 1.0000000000000000
    10.2106219203337467    0.0000000000000000    0.0000000000000000
     0.0000000000000000   10.2106219203337467    0.0000000000000000
     0.0000000000000000    0.0000000000000000   35.4149999999999991
 Cu  N   O  
  64   1   1
Selective dynamics
Cartesian
  1.2763277400417183  1.2763277400417183 15.0000000000000000   F   F   F
  3.8289832201251550  1.2763277400417183 15.0000000000000000   F   F   F
  6.3816387002085921  1.2763277400417183 15.0000000000000000   F   F   F
  8.9342941802920279  1.2763277400417183 15.0000000000000000   F   F   F
  1.2763277400417183  3.8289832201251550 15.0000000000000000   F   F   F
  3.8289832201251550  3.8289832201251550 15.0000000000000000   F   F   F
  6.3816387002085921  3.8289832201251550 15.0000000000000000   F   F   F
  8.9342941802920279  3.8289832201251550 15.0000000000000000   F   F   F
  1.2763277400417183  6.3816387002085921 15.0000000000000000   F   F   F
  3.8289832201251550  6.3816387002085921 15.0000000000000000   F   F   F
  6.3816387002085921  6.3816387002085921 15.0000000000000000   F   F   F
  8.9342941802920279  6.3816387002085921 15.0000000000000000   F   F   F
  1.2763277400417183  8.9342941802920279 15.0000000000000000   F   F   F
  3.8289832201251550  8.9342941802920279 15.0000000000000000   F   F   F
  6.3816387002085921  8.9342941802920279 15.0000000000000000   F   F   F
  8.9342941802920279  8.9342941802920279 15.0000000000000000   F   F   F
  0.0000000000000000  0.0000000000000000 16.8049999999999997   F   F   F
  2.5526554800834367  0.0000000000000000 16.8049999999999997   F   F   F
  5.1053109601668734  0.0000000000000000 16.8049999999999997   F   F   F
  7.6579664402503100  0.0000000000000000 16.8049999999999997   F   F   F
  0.0000000000000000  2.5526554800834367 16.8049999999999997   F   F   F
  2.5526554800834367  2.5526554800834367 16.8049999999999997   F   F   F
  5.1053109601668734  2.5526554800834367 16.8049999999999997   F   F   F
  7.6579664402503100  2.5526554800834367 16.8049999999999997   F   F   F
  0.0000000000000000  5.1053109601668734 16.8049999999999997   F   F   F
  2.5526554800834367  5.1053109601668734 16.8049999999999997   F   F   F
  5.1053109601668734  5.1053109601668734 16.8049999999999997   F   F   F
  7.6579664402503100  5.1053109601668734 16.8049999999999997   F   F   F
  0.0000000000000000  7.6579664402503100 16.8049999999999997   F   F   F
  2.5526554800834367  7.6579664402503100 16.8049999999999997   F   F   F
  5.1053109601668734  7.6579664402503100 16.8049999999999997   F   F   F
  7.6579664402503100  7.6579664402503100 16.8049999999999997   F   F   F
  1.2916129635917184  1.2865134746078746 18.6552806256762445   T   T   T
  3.8323565784550242  1.2782544729616481 18.6443974351989645   T   T   T
  6.3699601041206408  1.2857099208370930 18.6571239024922839   T   T   T
  8.9350379864557397  1.2741423352547629 18.6350441270287988   T   T   T
  1.2895345750181115  3.8253491821194285 18.6445700919289337   T   T   T
  3.8320292315685736  3.8190222139975654 18.5582159826301840   T   T   T
  6.3764784227245306  3.8244610163275263 18.6435752276492188   T   T   T
  8.9386465866652731  3.8294805948368000 18.6395360364392744   T   T   T
  1.2918948663269429  6.3642595843692442 18.6580427337553942   T   T   T
  3.8314505857718197  6.3647286893393753 18.6447678291035714   T   T   T
  6.3699066528309540  6.3646145478122822 18.6569410684796821   T   T   T
  8.9377195137014276  6.3836189808300032 18.6363215155121580   T   T   T
  1.2749550002843231  8.9271863289069824 18.6360258377880044   T   T   T
  3.8290978927666228  8.9222737147913413 18.6396998707109027   T   T   T
  6.3843355485376767  8.9296848983678068 18.6353456562321966   T   T   T
  8.9350047146623783  8.9336494833677538 18.6415808547231947   T   T   T
  0.0056869640248197  0.0024152472964199 20.4164137305090456   T   T   T
  2.5552664165153511 10.1924788310896286 20.4165746566881836   T   T   T
  5.1073396640196318 10.1960380039280967 20.4186382126141837   T   T   T
  7.6578261921031991 10.2091758398453809 20.4193229179522042   T   T   T
  0.0015166780213135  2.5526675799203722 20.4168149215158472   T   T   T
  2.5580789262228594  2.5375505936957143 20.4868513213253074   T   T   T
  5.1101834380820232  2.5398735529089054 20.4858094764259206   T   T   T
  7.6653623348833495  2.5494508337155630 20.4194747661090865   T   T   T
  0.0068382848432497  5.1052423490169963 20.4214502387841499   T   T   T
  2.5623824557432990  5.0877186882332319 20.4835227698429350   T   T   T
  5.1092682441036104  5.0879855223495625 20.4815041299090446   T   T   T
  7.6662455368993339  5.1032554092442632 20.4187801005702703   T   T   T
 10.2100043921299513  7.6571242484821722 20.4209739586777026   T   T   T
  2.5512323207251990  7.6443193973464636 20.4229138981433600   T   T   T
  5.1059213206089700  7.6463878258825151 20.4193430385741834   T   T   T
  7.6551591301564077  7.6518839602627065 20.4189603819067429   T   T   T
  3.8355284999177583  3.8079839940415900 21.5576726372293095   T   T   T
  3.8365889501082098  3.8067754174430126 22.7989737818173914   T   T   T
