H2CO_Cu111
 1.0000000000000000
    10.2106219203337467    0.0000000000000000    0.0000000000000000
     0.0000000000000000    8.8426579714472719    0.0000000000000000
     0.0000000000000000    0.0000000000000000   36.2527034153236514
 Cu  C   O   H  
  64   1   1   2
Selective dynamics
Cartesian
  0.0000000000000000  0.0000000000000000 15.0000000000000000   F   F   F
  2.5526554800834367  0.0000000000000000 15.0000000000000000   F   F   F
  5.1053109601668734  0.0000000000000000 15.0000000000000000   F   F   F
  7.6579664402503100  0.0000000000000000 15.0000000000000000   F   F   F
  1.2763277400417183  2.2106644928618180 15.0000000000000000   F   F   F
  3.8289832201251550  2.2106644928618180 15.0000000000000000   F   F   F
  6.3816387002085921  2.2106644928618180 15.0000000000000000   F   F   F
  8.9342941802920279  2.2106644928618180 15.0000000000000000   F   F   F
  0.0000000000000000  4.4213289857236360 15.0000000000000000   F   F   F
  2.5526554800834367  4.4213289857236360 15.0000000000000000   F   F   F
  5.1053109601668734  4.4213289857236360 15.0000000000000000   F   F   F
  7.6579664402503100  4.4213289857236360 15.0000000000000000   F   F   F
  1.2763277400417183  6.6319934785854526 15.0000000000000000   F   F   F
  3.8289832201251550  6.6319934785854526 15.0000000000000000   F   F   F
  6.3816387002085921  6.6319934785854526 15.0000000000000000   F   F   F
  8.9342941802920279  6.6319934785854526 15.0000000000000000   F   F   F
  1.2763277400417183  0.7368881642872727 17.0842344717745505   F   F   F
  3.8289832201251550  0.7368881642872727 17.0842344717745505   F   F   F
  6.3816387002085921  0.7368881642872727 17.0842344717745505   F   F   F
  8.9342941802920279  0.7368881642872727 17.0842344717745505   F   F   F
  0.0000000000000000  2.9475526571490906 17.0842344717745505   F   F   F
  2.5526554800834367  2.9475526571490906 17.0842344717745505   F   F   F
  5.1053109601668734  2.9475526571490906 17.0842344717745505   F   F   F
  7.6579664402503100  2.9475526571490906 17.0842344717745505   F   F   F
  1.2763277400417183  5.1582171500109091 17.0842344717745505   F   F   F
  3.8289832201251550  5.1582171500109091 17.0842344717745505   F   F   F
  6.3816387002085921  5.1582171500109091 17.0842344717745505   F   F   F
  8.9342941802920279  5.1582171500109091 17.0842344717745505   F   F   F
  0.0000000000000000  7.3688816428727266 17.0842344717745505   F   F   F
  2.5526554800834367  7.3688816428727266 17.0842344717745505   F   F   F
  5.1053109601668734  7.3688816428727266 17.0842344717745505   F   F   F
  7.6579664402503100  7.3688816428727266 17.0842344717745505   F   F   F
 10.2091760054570884  1.4727876191284324 19.1621206837264353   T   T   T
  2.5580142970160780  1.4759068065029952 19.1740005320770699   T   T   T
  5.1012388756314779  1.4760805777671864 19.1771367144907749   T   T   T
  7.6588627920726582  1.4728241855430821 19.1631898619344305   T   T   T
  1.2758525064565094  3.6848596629824462 19.1625834082366993   T   T   T
  3.8296808915363405  3.6789043885636810 19.1750702953137626   T   T   T
  6.3815551610649193  3.6840399082267892 19.1655377068897081   T   T   T
  8.9341601268236328  3.6843697934537789 19.1657832282857257   T   T   T
  0.0000641965395237  5.8948951003609018 19.1653873417717655   T   T   T
  2.5531557487939018  5.8969431807983517 19.1626567769025407   T   T   T
  5.1049818166245382  5.8967977857043143 19.1624611583087443   T   T   T
  7.6577242651506969  5.8946810265120018 19.1653570585978237   T   T   T
  1.2745866760800664  8.1048486575807175 19.1624607580267003   T   T   T
  3.8295544285399887  8.1061509190200436 19.1657444862984541   T   T   T
  6.3834102302807665  8.1056087904188026 19.1624599225241283   T   T   T
  8.9344046545495033  8.1054323998590174 19.1653881178867671   T   T   T
  0.0000960011620035  0.0006160863396597 21.2580423302150265   T   T   T
  2.5479000318827727  8.8353543855079728 21.2448203606924224   T   T   T
  5.1086445971549130  8.8338453943676214 21.2470837371757888   T   T   T
  7.6578390727774215  8.8425136942298685 21.2564832426865458   T   T   T
  1.2690689961247283  2.2120744789121076 21.2425922489099825   T   T   T
  3.8261323413598425  2.2105452741507245 21.2855323182258864   T   T   T
  6.3905038113022039  2.2117611529564614 21.2474525229781896   T   T   T
  8.9344837078030785  2.2101618152768761 21.2601273731543472   T   T   T
 10.2092849271504278  4.4216220356015024 21.2580089724935455   T   T   T
  2.5478165059840738  4.4259276234376426 21.2441114004379514   T   T   T
  5.1091277086773408  4.4289492730146574 21.2466313324746672   T   T   T
  7.6588704330567010  4.4217987134916923 21.2577230175694538   T   T   T
  1.2759736192694702  6.6309151335902268 21.2601617361687154   T   T   T
  3.8284314698966955  6.6301414078254091 21.2594795573789597   T   T   T
  6.3821381959877330  6.6325545644694852 21.2583464180934385   T   T   T
  8.9343189751605490  6.6322383550059678 21.2561333811551307   T   T   T
  3.0704885257946861  2.4334236263334557 24.8719445393040317   T   T   T
  3.9512185783710514  2.1089835303247861 24.0918014970054273   T   T   T
  2.0829604509822013  2.7732385146110570 24.4988562393658142   T   T   T
  3.2662219990601793  2.3850344735794877 25.9595753263671583   T   T   T
