CH4_Ir110
 1.0000000000000000
    11.5199999999999996    0.0000000000000000    0.0000000000000000
     0.0000000000000000    5.4305800795126853    0.0000000000000000
     0.0000000000000000    0.0000000000000000   34.0729350596345171
 Ir  C   H  
  24   1   4
Selective dynamics
Cartesian
  1.9199999999999999  1.3576450198781711 15.0000000000000018   F   F   F
  5.7599999999999989  1.3576450198781711 15.0000000000000018   F   F   F
  9.5999999999999996  1.3576450198781711 15.0000000000000018   F   F   F
  1.9199999999999999  4.0729350596345135 15.0000000000000018   F   F   F
  5.7599999999999989  4.0729350596345135 15.0000000000000018   F   F   F
  9.5999999999999996  4.0729350596345135 15.0000000000000018   F   F   F
  0.0000000000000000  0.0000000000000000 16.3576450198781735   F   F   F
  3.8399999999999999  0.0000000000000000 16.3576450198781735   F   F   F
  7.6799999999999997  0.0000000000000000 16.3576450198781735   F   F   F
  0.0000000000000000  2.7152900397563422 16.3576450198781735   F   F   F
  3.8399999999999999  2.7152900397563422 16.3576450198781735   F   F   F
  7.6799999999999997  2.7152900397563422 16.3576450198781735   F   F   F
  1.9192600914004541  1.3579223724765226 17.7791537093628698   T   T   T
  5.7609651850891117  1.3582375715718453 17.7772778981664139   T   T   T
  9.5996925019279633  1.3571571860756590 17.7761246432797719   T   T   T
  1.9188033613323190  4.0725305826510239 17.7787684445991445   T   T   T
  5.7606438223224856  4.0719786442546946 17.7777093619508619   T   T   T
  9.5998479872306781  4.0738877044847897 17.7763441685188965   T   T   T
  0.0012918619777052  0.0003414108517122 19.0042085614768048   T   T   T
  3.8407635064133290  0.0011988785210768 18.9973521433110655   T   T   T
  7.6791627487650231  5.4303069048368622 19.0037802624725956   T   T   T
 11.5194988863778658  2.7148464158201868 19.0008631359546101   T   T   T
  3.8411012566444680  2.7146719545696998 18.9994837889879946   T   T   T
  7.6787493372537936  2.7154061552262756 19.0024839930451783   T   T   T
  3.3521016520620321  2.4425886573468181 22.2601707235423056   T   T   T
  3.3229430989702817  2.6430597136563145 23.3371181907305605   T   T   T
  3.1655356870855851  1.3808832751956890 22.0796951579540881   T   T   T
  4.3403807153875604  2.7154608594902503 21.8706564622179904   T   T   T
  2.5814662823861791  3.0396028679550553 21.7608158463174028   T   T   T
