CH3CH2OH_Pd111
 1.0000000000000000
    11.0025815152626798    0.0000000000000000    0.0000000000000000
     0.0000000000000000    9.5285150994265617    0.0000000000000000
     0.0000000000000000    0.0000000000000000   36.7376776414429358
 Pd  C   O   H  
  64   2   1   6
Selective dynamics
Cartesian
  0.0000000000000000  0.0000000000000000 15.0000000000000000   F   F   F
  2.7506453788156695  0.0000000000000000 15.0000000000000000   F   F   F
  5.5012907576313390  0.0000000000000000 15.0000000000000000   F   F   F
  8.2519361364470107  0.0000000000000000 15.0000000000000000   F   F   F
  1.3753226894078348  2.3821287748566404 15.0000000000000000   F   F   F
  4.1259680682235054  2.3821287748566404 15.0000000000000000   F   F   F
  6.8766134470391735  2.3821287748566404 15.0000000000000000   F   F   F
  9.6272588258548453  2.3821287748566404 15.0000000000000000   F   F   F
  0.0000000000000000  4.7642575497132809 15.0000000000000000   F   F   F
  2.7506453788156695  4.7642575497132809 15.0000000000000000   F   F   F
  5.5012907576313390  4.7642575497132809 15.0000000000000000   F   F   F
  8.2519361364470107  4.7642575497132809 15.0000000000000000   F   F   F
  1.3753226894078348  7.1463863245699208 15.0000000000000000   F   F   F
  4.1259680682235054  7.1463863245699208 15.0000000000000000   F   F   F
  6.8766134470391735  7.1463863245699208 15.0000000000000000   F   F   F
  9.6272588258548453  7.1463863245699208 15.0000000000000000   F   F   F
  1.3753226894078348  0.7940429249522134 17.2458925471476441   F   F   F
  4.1259680682235054  0.7940429249522134 17.2458925471476441   F   F   F
  6.8766134470391735  0.7940429249522134 17.2458925471476441   F   F   F
  9.6272588258548453  0.7940429249522134 17.2458925471476441   F   F   F
  0.0000000000000000  3.1761716998088536 17.2458925471476441   F   F   F
  2.7506453788156695  3.1761716998088536 17.2458925471476441   F   F   F
  5.5012907576313390  3.1761716998088536 17.2458925471476441   F   F   F
  8.2519361364470107  3.1761716998088536 17.2458925471476441   F   F   F
  1.3753226894078348  5.5583004746654945 17.2458925471476441   F   F   F
  4.1259680682235054  5.5583004746654945 17.2458925471476441   F   F   F
  6.8766134470391735  5.5583004746654945 17.2458925471476441   F   F   F
  9.6272588258548453  5.5583004746654945 17.2458925471476441   F   F   F
  0.0000000000000000  7.9404292495221354 17.2458925471476441   F   F   F
  2.7506453788156695  7.9404292495221354 17.2458925471476441   F   F   F
  5.5012907576313390  7.9404292495221354 17.2458925471476441   F   F   F
  8.2519361364470107  7.9404292495221354 17.2458925471476441   F   F   F
 11.0013681234357374  1.5883307839001162 19.5291163932062517   T   T   T
  2.7494763531305280  1.5911238545970046 19.5248047933237814   T   T   T
  5.4999026133756423  1.5886524994222115 19.5257336563349959   T   T   T
  8.2519950637261150  1.5887111152278723 19.5261336902765805   T   T   T
  1.3735763038301667  3.9721880934184948 19.5244499023730569   T   T   T
  4.1266550812271197  3.9705181968853318 19.5293529520991633   T   T   T
  6.8739344469832444  3.9739234618349619 19.5275901219475649   T   T   T
  9.6252566815694642  3.9706097872477533 19.5292294558956741   T   T   T
 11.0017824042518253  6.3514907541627021 19.5235600651185806   T   T   T
  2.7599381758161670  6.3575338567471409 19.5512757138585265   T   T   T
  5.4899703861189701  6.3600253978588608 19.5563586801868610   T   T   T
  8.2481588187344776  6.3535731744984663 19.5261377050987619   T   T   T
  1.3722665236354004  8.7354255160760008 19.5250091240147725   T   T   T
  4.1233286205176150  8.7283689346050597 19.5449647462505780   T   T   T
  6.8775931904726173  8.7352831464147727 19.5252842847644672   T   T   T
  9.6270995730300495  8.7343894690601793 19.5271689354321616   T   T   T
  0.0009147213945161  9.5280825500927211 21.8394735589914966   T   T   T
  2.7413984042188684  0.0116506374726687 21.8246712916906453   T   T   T
  5.5091877159397296  0.0109251397765068 21.8213839921971484   T   T   T
  8.2553034776149321  0.0019075362982437 21.8318644976718446   T   T   T
  1.3713151031119144  2.3825780425473364 21.8388706237543673   T   T   T
  4.1230850810115678  2.3825059909468460 21.8376357874727738   T   T   T
  6.8818866258001128  2.3826116669384461 21.8335509391021176   T   T   T
  9.6264536855346776  2.3828367304661797 21.8374364358034754   T   T   T
  0.0022876975245296  4.7646151521480764 21.8352634234326182   T   T   T
  2.7430312766287650  4.7502081785211541 21.8237761011574349   T   T   T
  5.5067855835277388  4.7525102443047826 21.8300002853349717   T   T   T
  8.2536370511993127  4.7651591755880185 21.8372656511117071   T   T   T
  1.3675310645023011  7.1458978969227713 21.8220606677922042   T   T   T
  4.1362523173408832  7.1302678092222838 21.8900482111558752   T   T   T
  6.8910373761312789  7.1468744307373457 21.8316626128434379   T   T   T
  9.6314405059360730  7.1454803370326898 21.8320789592769415   T   T   T
  4.6020472251512494  5.3589279765487365 25.1892645147542318   T   T   T
  3.5758830637055605  6.4479870253083496 25.0573851841183242   T   T   T
  4.0661079133622895  7.4606727979793552 24.1367508026991189   T   T   T
  4.8070232628313230  4.8870230234117429 24.2135254959816280   T   T   T
  5.5461135137703730  5.7578938326703462 25.5766071956866341   T   T   T
  4.2455709800925874  4.5787501046837598 25.8727915306664968   T   T   T
  3.3852682682982151  6.9478736571885582 26.0232275918640603   T   T   T
  2.6039610819981824  6.0685905889396743 24.6846042872852323   T   T   T
  3.4156408749727674  8.1940070364439759 24.0647005205403985   T   T   T
