CH3CHO_Ir111
 1.0000000000000000
    10.8611601590253706    0.0000000000000000    0.0000000000000000
     0.0000000000000000    9.4060406122874021    0.0000000000000000
     0.0000000000000000    0.0000000000000000   36.6510751010644924
 Ir  C   O   H  
  64   2   1   4
Selective dynamics
Cartesian
  0.0000000000000000  0.0000000000000000 15.0000000000000018   F   F   F
  2.7152900397563422  0.0000000000000000 15.0000000000000018   F   F   F
  5.4305800795126844  0.0000000000000000 15.0000000000000018   F   F   F
  8.1458701192690270  0.0000000000000000 15.0000000000000018   F   F   F
  1.3576450198781711  2.3515101530718505 15.0000000000000018   F   F   F
  4.0729350596345135  2.3515101530718505 15.0000000000000018   F   F   F
  6.7882250993908571  2.3515101530718505 15.0000000000000018   F   F   F
  9.5035151391471988  2.3515101530718505 15.0000000000000018   F   F   F
  0.0000000000000000  4.7030203061437010 15.0000000000000018   F   F   F
  2.7152900397563422  4.7030203061437010 15.0000000000000018   F   F   F
  5.4305800795126844  4.7030203061437010 15.0000000000000018   F   F   F
  8.1458701192690270  4.7030203061437010 15.0000000000000018   F   F   F
  1.3576450198781711  7.0545304592155516 15.0000000000000018   F   F   F
  4.0729350596345135  7.0545304592155516 15.0000000000000018   F   F   F
  6.7882250993908571  7.0545304592155516 15.0000000000000018   F   F   F
  9.5035151391471988  7.0545304592155516 15.0000000000000018   F   F   F
  1.3576450198781711  0.7838367176906168 17.2170250336881665   F   F   F
  4.0729350596345135  0.7838367176906168 17.2170250336881665   F   F   F
  6.7882250993908571  0.7838367176906168 17.2170250336881665   F   F   F
  9.5035151391471988  0.7838367176906168 17.2170250336881665   F   F   F
  0.0000000000000000  3.1353468707624672 17.2170250336881665   F   F   F
  2.7152900397563422  3.1353468707624672 17.2170250336881665   F   F   F
  5.4305800795126844  3.1353468707624672 17.2170250336881665   F   F   F
  8.1458701192690270  3.1353468707624672 17.2170250336881665   F   F   F
  1.3576450198781711  5.4868570238343182 17.2170250336881665   F   F   F
  4.0729350596345135  5.4868570238343182 17.2170250336881665   F   F   F
  6.7882250993908571  5.4868570238343182 17.2170250336881665   F   F   F
  9.5035151391471988  5.4868570238343182 17.2170250336881665   F   F   F
  0.0000000000000000  7.8383671769061687 17.2170250336881665   F   F   F
  2.7152900397563422  7.8383671769061687 17.2170250336881665   F   F   F
  5.4305800795126844  7.8383671769061687 17.2170250336881665   F   F   F
  8.1458701192690270  7.8383671769061687 17.2170250336881665   F   F   F
  0.0003637036464484  1.5626104500837366 19.4413446167493333   T   T   T
  2.7250307028526595  1.5711642649407132 19.4778158030634145   T   T   T
  5.4226836075366229  1.5704589707119221 19.4757714383746290   T   T   T
  8.1471931562428797  1.5622252776265713 19.4422849301560277   T   T   T
  1.3576753837107949  3.9151105696992685 19.4455698620217134   T   T   T
  4.0737795719116070  3.9062127150992381 19.4764730411746214   T   T   T
  6.7898778362566921  3.9152433551441721 19.4450783440604766   T   T   T
  9.5041011170234668  3.9156903403438874 19.4466913076259971   T   T   T
  0.0006415500276841  6.2676048434672653 19.4445838804906010   T   T   T
  2.7183929387280741  6.2690323894679176 19.4440739979516692   T   T   T
  5.4296145075404718  6.2690008691402594 19.4439736593934782   T   T   T
  8.1475434456353604  6.2675288006907826 19.4448377516470430   T   T   T
  1.3559666454645782  8.6209534142477526 19.4413562234384010   T   T   T
  4.0736116554022859  8.6219065925278464 19.4447689668607673   T   T   T
  6.7918535199543015  8.6210802142312879 19.4410988592961225   T   T   T
  9.5043700909349447  8.6190260673469101 19.4476902991774345   T   T   T
  0.0015661948507649  9.4032304894202010 21.6588200461211713   T   T   T
  2.7072883432174484  9.3890421374271682 21.6506918308333205   T   T   T
  5.4435458564760761  9.3854664832665229 21.6472764012193188   T   T   T
  8.1466639188733811  9.4024392150758160 21.6591534926561877   T   T   T
  1.3407008103388034  2.3475620935936177 21.6506991115708232   T   T   T
  4.0712136329612960  2.3578542038395014 21.7180127359936606   T   T   T
  6.8081703137876071  2.3473897537167927 21.6519950673581931   T   T   T
  9.5056874364190609  2.3487041308217318 21.6596682670676444   T   T   T
  0.0031607825841855  4.7007498709713902 21.6629536401521818   T   T   T
  2.7084955895863438  4.7100534274804007 21.6449472884285186   T   T   T
  5.4402708648430238  4.7102414100933778 21.6458812997542545   T   T   T
  8.1436912317041532  4.6998427119137958 21.6621538771331714   T   T   T
  1.3534436679489008  7.0488194483225328 21.6589357668352669   T   T   T
  4.0728947440510730  7.0542788514071466 21.6584191508555115   T   T   T
  6.7939457546084974  7.0489126965741473 21.6595961689608103   T   T   T
  9.5046721582950813  7.0494216930143816 21.6596301696898337   T   T   T
  3.9496797121119500  3.0086189077054524 26.1355208542145014   T   T   T
  3.8890807322116738  3.1930657831792577 24.6670786827468724   T   T   T
  4.1302660500066226  2.2469778188541092 23.8943718838170902   T   T   T
  4.2790238690681646  2.0020651587275924 26.3946671173855165   T   T   T
  4.6144726867021246  3.7545547251847382 26.5936203638870801   T   T   T
  2.9592891224147100  3.2006447238903779 26.5759104117234131   T   T   T
  3.6154187488156015  4.1858744379476178 24.2576881614412194   T   T   T
