CH3OCH3_Rh110
 1.0000000000000000
    11.4089999999999989    0.0000000000000000    0.0000000000000000
     0.0000000000000000    5.3782541777048811    0.0000000000000000
     0.0000000000000000    0.0000000000000000   34.0336906332786597
 Rh  C   O   H  
  24   2   1   6
Selective dynamics
Cartesian
  1.9014999999999997  1.3445635444262203 15.0000000000000000   F   F   F
  5.7044999999999995  1.3445635444262203 15.0000000000000000   F   F   F
  9.5074999999999985  1.3445635444262203 15.0000000000000000   F   F   F
  1.9014999999999997  4.0336906332786606 15.0000000000000000   F   F   F
  5.7044999999999995  4.0336906332786606 15.0000000000000000   F   F   F
  9.5074999999999985  4.0336906332786606 15.0000000000000000   F   F   F
  0.0000000000000000  0.0000000000000000 16.3445635444262187   F   F   F
  3.8029999999999995  0.0000000000000000 16.3445635444262187   F   F   F
  7.6059999999999990  0.0000000000000000 16.3445635444262187   F   F   F
  0.0000000000000000  2.6891270888524406 16.3445635444262187   F   F   F
  3.8029999999999995  2.6891270888524406 16.3445635444262187   F   F   F
  7.6059999999999990  2.6891270888524406 16.3445635444262187   F   F   F
  1.8924030811731836  1.3406225028620644 17.7316278297001055   T   T   T
  5.7135689204240219  1.3412201325838928 17.7325487838010147   T   T   T
  9.5070880301882124  1.3415425795577924 17.7375073813168171   T   T   T
  1.8942160448783651  4.0322474688495999 17.7339816041914276   T   T   T
  5.7128310351297715  4.0327300073811347 17.7334167303862920   T   T   T
  9.5066261294925898  4.0360833945936241 17.7356459979972634   T   T   T
 11.4070002831418904  5.3777781909174056 18.9874783384797610   T   T   T
  3.8025014287246477  5.3697403811542364 18.9384015260134966   T   T   T
  7.6070185791430784  0.0003474629123834 18.9885193237999417   T   T   T
 11.4062120880384121  2.6884670462939262 18.9765552290144512   T   T   T
  3.8075011111594033  2.6805516625010579 18.9894788428434786   T   T   T
  7.6061900362508164  2.6890038293694243 18.9790008570249604   T   T   T
  2.5632513025239332  3.1376488705321814 21.7328446276047025   T   T   T
  4.9621719236131216  3.2250448648364212 21.7781279573811055   T   T   T
  3.7942693685618183  2.6155621407418916 21.1918593788367424   T   T   T
  2.5047466081594325  4.2279425201795977 21.5777761913659205   T   T   T
  1.7381778175497480  2.6471237071215254 21.1975417236944956   T   T   T
  2.5034377621571720  2.9032923358038953 22.8054747456613498   T   T   T
  4.9879720253701993  4.3038171129202301 21.5489649269133636   T   T   T
  5.8428424086979165  2.7354611773702375 21.3431212052956951   T   T   T
  4.9440204015423683  3.0800172438934346 22.8675854619375194   T   T   T
