HCOOH_Pd100
 1.0000000000000000
     8.2519361364470107    0.0000000000000000    0.0000000000000000
     0.0000000000000000    8.2519361364470107    0.0000000000000000
     0.0000000000000000    0.0000000000000000   35.8350000000000009
 Pd  O   C   H  
  36   2   1   2
Selective dynamics
Cartesian
  1.3753226894078350  1.3753226894078350 15.0000000000000000   F   F   F
  4.1259680682235054  1.3753226894078350 15.0000000000000000   F   F   F
  6.8766134470391780  1.3753226894078350 15.0000000000000000   F   F   F
  1.3753226894078350  4.1259680682235054 15.0000000000000000   F   F   F
  4.1259680682235054  4.1259680682235054 15.0000000000000000   F   F   F
  6.8766134470391780  4.1259680682235054 15.0000000000000000   F   F   F
  1.3753226894078350  6.8766134470391780 15.0000000000000000   F   F   F
  4.1259680682235054  6.8766134470391780 15.0000000000000000   F   F   F
  6.8766134470391780  6.8766134470391780 15.0000000000000000   F   F   F
  0.0000000000000000  0.0000000000000000 16.9450000000000003   F   F   F
  2.7506453788156700  0.0000000000000000 16.9450000000000003   F   F   F
  5.5012907576313399  0.0000000000000000 16.9450000000000003   F   F   F
  0.0000000000000000  2.7506453788156700 16.9450000000000003   F   F   F
  2.7506453788156700  2.7506453788156700 16.9450000000000003   F   F   F
  5.5012907576313399  2.7506453788156700 16.9450000000000003   F   F   F
  0.0000000000000000  5.5012907576313399 16.9450000000000003   F   F   F
  2.7506453788156700  5.5012907576313399 16.9450000000000003   F   F   F
  5.5012907576313399  5.5012907576313399 16.9450000000000003   F   F   F
  1.3873311624265658  1.3878707197057523 18.9552102374485791   T   T   T
  4.1132868200891108  1.3881179347903383 18.9481136628047686   T   T   T
  6.8786426872332944  1.3708770139910109 18.9397218699070997   T   T   T
  1.3826941346256032  4.1187566920914511 18.9503038971164592   T   T   T
  4.1151136918625149  4.1162028706471148 18.9521303515993367   T   T   T
  6.8766797607057883  4.1290968383633926 18.9390939290680720   T   T   T
  1.3725444495989885  6.8777732671955851 18.9402402661212008   T   T   T
  4.1296776755796678  6.8749248402442076 18.9393049040417907   T   T   T
  6.8767705067093186  6.8766380175340247 18.9435556796834028   T   T   T
  0.0049024815313849  0.0040765302250734 20.9360696779181659   T   T   T
  2.7558699029140059  8.2442187075553814 20.9142044046400741   T   T   T
  5.4935541708216666  0.0067156339224913 20.9280273058639708   T   T   T
  8.2422732904224389  2.7489599008078192 20.9212279722090351   T   T   T
  2.7597814464541530  2.7335758521095990 21.0414321407735905   T   T   T
  5.5115840653792292  2.7499979323603263 20.9073046756499714   T   T   T
  0.0015795160450373  5.4994472488013058 20.9290200809561071   T   T   T
  2.7523166451686105  5.5119899977462934 20.9171801467937257   T   T   T
  5.4982613514255023  5.4981418003099529 20.9351901647825365   T   T   T
  4.0870233299296608  1.3039163630247717 23.8411952774832940   T   T   T
  2.6474930708491318  2.9705059040603534 23.2300632136867478   T   T   T
  3.2799524407832452  2.3208841175396109 24.0685704314247069   T   T   T
  4.1123705706591167  1.1300919377578602 22.8433282596235898   T   T   T
  3.2098614564481496  2.5589354185073785 25.1393909073567983   T   T   T
