C2H6_Pd111
 1.0000000000000000
    11.0025815152626798    0.0000000000000000    0.0000000000000000
     0.0000000000000000    9.5285150994265617    0.0000000000000000
     0.0000000000000000    0.0000000000000000   36.7376776414429358
 Pd  C   H  
  64   2   6
Selective dynamics
Cartesian
  0.0000000000000000  0.0000000000000000 15.0000000000000000   F   F   F
  2.7506453788156695  0.0000000000000000 15.0000000000000000   F   F   F
  5.5012907576313390  0.0000000000000000 15.0000000000000000   F   F   F
  8.2519361364470107  0.0000000000000000 15.0000000000000000   F   F   F
  1.3753226894078348  2.3821287748566404 15.0000000000000000   F   F   F
  4.1259680682235054  2.3821287748566404 15.0000000000000000   F   F   F
  6.8766134470391735  2.3821287748566404 15.0000000000000000   F   F   F
  9.6272588258548453  2.3821287748566404 15.0000000000000000   F   F   F
  0.0000000000000000  4.7642575497132809 15.0000000000000000   F   F   F
  2.7506453788156695  4.7642575497132809 15.0000000000000000   F   F   F
  5.5012907576313390  4.7642575497132809 15.0000000000000000   F   F   F
  8.2519361364470107  4.7642575497132809 15.0000000000000000   F   F   F
  1.3753226894078348  7.1463863245699208 15.0000000000000000   F   F   F
  4.1259680682235054  7.1463863245699208 15.0000000000000000   F   F   F
  6.8766134470391735  7.1463863245699208 15.0000000000000000   F   F   F
  9.6272588258548453  7.1463863245699208 15.0000000000000000   F   F   F
  1.3753226894078348  0.7940429249522134 17.2458925471476441   F   F   F
  4.1259680682235054  0.7940429249522134 17.2458925471476441   F   F   F
  6.8766134470391735  0.7940429249522134 17.2458925471476441   F   F   F
  9.6272588258548453  0.7940429249522134 17.2458925471476441   F   F   F
  0.0000000000000000  3.1761716998088536 17.2458925471476441   F   F   F
  2.7506453788156695  3.1761716998088536 17.2458925471476441   F   F   F
  5.5012907576313390  3.1761716998088536 17.2458925471476441   F   F   F
  8.2519361364470107  3.1761716998088536 17.2458925471476441   F   F   F
  1.3753226894078348  5.5583004746654945 17.2458925471476441   F   F   F
  4.1259680682235054  5.5583004746654945 17.2458925471476441   F   F   F
  6.8766134470391735  5.5583004746654945 17.2458925471476441   F   F   F
  9.6272588258548453  5.5583004746654945 17.2458925471476441   F   F   F
  0.0000000000000000  7.9404292495221354 17.2458925471476441   F   F   F
  2.7506453788156695  7.9404292495221354 17.2458925471476441   F   F   F
  5.5012907576313390  7.9404292495221354 17.2458925471476441   F   F   F
  8.2519361364470107  7.9404292495221354 17.2458925471476441   F   F   F
 11.0020728351219628  1.5886198440525949 19.5317177756644007   T   T   T
  2.7509030797503451  1.5874769284480168 19.5293354120722213   T   T   T
  5.5028084557713806  1.5877711605816083 19.5319479271562173   T   T   T
  8.2498403412588299  1.5887959732612809 19.5326105742908709   T   T   T
  1.3754961168920086  3.9712191282333680 19.5305373336982129   T   T   T
  4.1288453001325367  3.9714392848451143 19.5375091425781662   T   T   T
  6.8736712689688773  3.9704320515675735 19.5399359360831042   T   T   T
  9.6281510452663106  3.9708931244968926 19.5296781883239277   T   T   T
  0.0003814779265817  6.3531273477913031 19.5292163993420367   T   T   T
  2.7495469403128303  6.3531088573617760 19.5297374896247504   T   T   T
  5.5013291838639669  6.3482648233142971 19.5344837712621171   T   T   T
  8.2521272484896002  6.3519989281894684 19.5301557523345330   T   T   T
  1.3745989452350675  8.7351266205652944 19.5295562357213619   T   T   T
  4.1265303629143091  8.7327288754348213 19.5317483195314168   T   T   T
  6.8766455190727003  8.7330536498786469 19.5314518671495954   T   T   T
  9.6270346491522645  8.7345009679900052 19.5301654221926881   T   T   T
 11.0013324582146819  0.0000495532725026 21.8385301020504592   T   T   T
  2.7493265462728376  0.0001814612132925 21.8379234025588715   T   T   T
  5.5001523436533377  0.0040006163706182 21.8381086453206450   T   T   T
  8.2518873802950825  0.0031484065246375 21.8388639257590107   T   T   T
  1.3787082441071883  2.3829087787821326 21.8384181476254327   T   T   T
  4.1202173418903314  2.3792390079979118 21.8271221570748928   T   T   T
  6.8820039674509008  2.3812050894238741 21.8353586500267660   T   T   T
  9.6248906261567804  2.3839241893432215 21.8400111324122435   T   T   T
 11.0007984160392382  4.7636409343865509 21.8367875617317999   T   T   T
  2.7505171127487604  4.7619754277587178 21.8365714697991784   T   T   T
  5.4986856219544711  4.7666189073777598 21.8488107095807926   T   T   T
  8.2563397987702238  4.7642342172176173 21.8311239281746339   T   T   T
  1.3771912968894990  7.1455803949509908 21.8373521848273491   T   T   T
  4.1265141069985907  7.1456932865284069 21.8364186886318450   T   T   T
  6.8766861717373295  7.1456260088506003 21.8363476362440672   T   T   T
  9.6267804013076130  7.1462628705246827 21.8359368392416933   T   T   T
  6.1991773401063632  2.8727842473402849 24.9424411251240343   T   T   T
  5.6963361512176949  4.3045156612730375 24.8105012368381459   T   T   T
  5.7414515191440341  2.3672421087622899 25.8041501428003386   T   T   T
  5.9325065006326021  2.2620034718792814 24.0576166508025331   T   T   T
  7.2904794618026934  2.8279603755285230 25.0586181050307175   T   T   T
  6.2914548633111220  4.8806630718545652 24.0711739910217979   T   T   T
  5.7967149139467242  4.8595627424818675 25.7550152445813438   T   T   T
  4.6348354309899182  4.3449980272205888 24.5198384824786686   T   T   T
