H2O_Au110
 1.0000000000000000
    16.3200000000000003    0.0000000000000000    0.0000000000000000
     0.0000000000000000   11.5399826689644573    0.0000000000000000
     0.0000000000000000    0.0000000000000000   34.3274935008616708
 Au  O   H  
  64   1   2
Selective dynamics
Cartesian
  2.0400000000000000  1.4424978336205572 14.9999999999999964   F   F   F
  6.1200000000000001  1.4424978336205572 14.9999999999999964   F   F   F
 10.1999999999999922  1.4424978336205572 14.9999999999999964   F   F   F
 14.2800000000000011  1.4424978336205572 14.9999999999999964   F   F   F
  2.0400000000000000  4.3274935008616717 14.9999999999999964   F   F   F
  6.1200000000000001  4.3274935008616717 14.9999999999999964   F   F   F
 10.1999999999999922  4.3274935008616717 14.9999999999999964   F   F   F
 14.2800000000000011  4.3274935008616717 14.9999999999999964   F   F   F
  2.0400000000000000  7.2124891681027856 14.9999999999999964   F   F   F
  6.1200000000000001  7.2124891681027856 14.9999999999999964   F   F   F
 10.1999999999999922  7.2124891681027856 14.9999999999999964   F   F   F
 14.2800000000000011  7.2124891681027856 14.9999999999999964   F   F   F
  2.0400000000000000 10.0974848353439004 14.9999999999999964   F   F   F
  6.1200000000000001 10.0974848353439004 14.9999999999999964   F   F   F
 10.1999999999999922 10.0974848353439004 14.9999999999999964   F   F   F
 14.2800000000000011 10.0974848353439004 14.9999999999999964   F   F   F
  0.0000000000000000  0.0000000000000000 16.4424978336205569   F   F   F
  4.0800000000000001  0.0000000000000000 16.4424978336205569   F   F   F
  8.1600000000000001  0.0000000000000000 16.4424978336205569   F   F   F
 12.2400000000000002  0.0000000000000000 16.4424978336205569   F   F   F
  0.0000000000000000  2.8849956672411143 16.4424978336205569   F   F   F
  4.0800000000000001  2.8849956672411143 16.4424978336205569   F   F   F
  8.1600000000000001  2.8849956672411143 16.4424978336205569   F   F   F
 12.2400000000000002  2.8849956672411143 16.4424978336205569   F   F   F
  0.0000000000000000  5.7699913344822287 16.4424978336205569   F   F   F
  4.0800000000000001  5.7699913344822287 16.4424978336205569   F   F   F
  8.1600000000000001  5.7699913344822287 16.4424978336205569   F   F   F
 12.2400000000000002  5.7699913344822287 16.4424978336205569   F   F   F
  0.0000000000000000  8.6549870017233435 16.4424978336205569   F   F   F
  4.0800000000000001  8.6549870017233435 16.4424978336205569   F   F   F
  8.1600000000000001  8.6549870017233435 16.4424978336205569   F   F   F
 12.2400000000000002  8.6549870017233435 16.4424978336205569   F   F   F
  2.0424835806645172  1.4419655016328854 18.0737954157977860   T   T   T
  6.1205401731965408  1.4405714106755612 18.0617889246930581   T   T   T
 10.2004050481921933  1.4420386735777755 18.0704375898443530   T   T   T
 14.2802401367281870  1.4425373644304944 18.0701793804819282   T   T   T
  2.0436712672322015  4.3259003942427690 18.0741916318366407   T   T   T
  6.1190009713218618  4.3271408863526117 18.0692540555215793   T   T   T
 10.2006561774369313  4.3280917492610742 18.0692758255521255   T   T   T
 14.2802094725268329  4.3273268846749211 18.0699322798480466   T   T   T
  2.0391470433706353  7.2130682716285417 18.0690215680233983   T   T   T
  6.1209207525650777  7.2127775322701106 18.0702160532729117   T   T   T
 10.1995153601100643  7.2121863912271342 18.0700680141985792   T   T   T
 14.2799098810865743  7.2125723727350266 18.0697063433668959   T   T   T
  2.0367230080473684 10.0969233977570028 18.0684036340467529   T   T   T
  6.1221887996676871 10.0993433156940675 18.0734509925699030   T   T   T
 10.1989842150229038 10.0983155815215060 18.0701250768815349   T   T   T
 14.2800169160567112 10.0975442797127997 18.0698159933888505   T   T   T
  0.0006426780897568  0.0005640535518424 19.4101660926927018   T   T   T
  4.0766998205581961 11.5237828013070782 19.4026531342005484   T   T   T
  8.1594936790529236  0.0028547644443066 19.4127724487177105   T   T   T
 12.2399068169429164  0.0001394849053992 19.4109883391163471   T   T   T
 16.3196542694772759  2.8846186347109462 19.4112851019167501   T   T   T
  4.0639720979777607  2.8919225530896204 19.4080273784354560   T   T   T
  8.1644649959701354  2.8849760541827849 19.4126809589041187   T   T   T
 12.2398505677286913  2.8848812672334718 19.4103432509096336   T   T   T
  0.0008953631412162  5.7694410198730850 19.4102285949835256   T   T   T
  4.0817028743748498  5.7795153529223224 19.4080030893100428   T   T   T
  8.1581254602345261  5.7678740909693520 19.4118613498299304   T   T   T
 12.2398231645666300  5.7698648409748730 19.4111721035569857   T   T   T
 16.3198181867908048  8.6549732685139436 19.4110768160383635   T   T   T
  4.0816692915986330  8.6562361923519777 19.4131835848690919   T   T   T
  8.1597721748925487  8.6553885752251336 19.4111507970321497   T   T   T
 12.2397827757760851  8.6549930081466524 19.4109980612277191   T   T   T
  5.5851599795180027  2.1220444889573824 21.9458463753213593   T   T   T
  6.3352983504966032  2.4551037222875047 21.4112524117223586   T   T   T
  5.4214774881207974  1.2330758610564054 21.5737705768348640   T   T   T
