N2_Pd100
 1.0000000000000000
     8.2519361364470107    0.0000000000000000    0.0000000000000000
     0.0000000000000000    8.2519361364470107    0.0000000000000000
     0.0000000000000000    0.0000000000000000   35.8350000000000009
 Pd  N  
  36   2
Selective dynamics
Cartesian
  1.3753226894078350  1.3753226894078350 15.0000000000000000   F   F   F
  4.1259680682235054  1.3753226894078350 15.0000000000000000   F   F   F
  6.8766134470391780  1.3753226894078350 15.0000000000000000   F   F   F
  1.3753226894078350  4.1259680682235054 15.0000000000000000   F   F   F
  4.1259680682235054  4.1259680682235054 15.0000000000000000   F   F   F
  6.8766134470391780  4.1259680682235054 15.0000000000000000   F   F   F
  1.3753226894078350  6.8766134470391780 15.0000000000000000   F   F   F
  4.1259680682235054  6.8766134470391780 15.0000000000000000   F   F   F
  6.8766134470391780  6.8766134470391780 15.0000000000000000   F   F   F
  0.0000000000000000  0.0000000000000000 16.9450000000000003   F   F   F
  2.7506453788156700  0.0000000000000000 16.9450000000000003   F   F   F
  5.5012907576313399  0.0000000000000000 16.9450000000000003   F   F   F
  0.0000000000000000  2.7506453788156700 16.9450000000000003   F   F   F
  2.7506453788156700  2.7506453788156700 16.9450000000000003   F   F   F
  5.5012907576313399  2.7506453788156700 16.9450000000000003   F   F   F
  0.0000000000000000  5.5012907576313399 16.9450000000000003   F   F   F
  2.7506453788156700  5.5012907576313399 16.9450000000000003   F   F   F
  5.5012907576313399  5.5012907576313399 16.9450000000000003   F   F   F
  1.3709571529133096  1.3717460064618607 18.9280599003016619   T   T   T
  4.1299643325144126  1.3721802928427429 18.9274390718096583   T   T   T
  6.8769789481041457  1.3737372131250190 18.9398828725826647   T   T   T
  1.3826856817493902  4.1335072748451340 18.9460332130175324   T   T   T
  4.1199991643854466  4.1333045108957487 18.9447827627432837   T   T   T
  6.8781459638422016  4.1226859383071384 18.9276753352415774   T   T   T
  1.3871363560093888  6.8654395609180980 18.9532841604263638   T   T   T
  4.1164958732303418  6.8667201806783593 18.9513543028825211   T   T   T
  6.8785758376018391  6.8812047868901356 18.9289888384066245   T   T   T
  0.0046752786927540  8.2461200818410365 20.9257684115054303   T   T   T
  2.7517876642929915  0.0240591429591897 20.9193900177579017   T   T   T
  5.4984310178632549  8.2467064017165050 20.9241236410937468   T   T   T
  0.0026429813616032  2.7506453351725035 20.9200819707681980   T   T   T
  2.7514866112882861  2.7476844973189638 20.9028701730942750   T   T   T
  5.5002029933601504  2.7504443285121298 20.9182793289666051   T   T   T
  8.2366447782682073  5.4983363688421649 20.9157108782244805   T   T   T
  2.7482769530507523  5.5155586581211047 21.0488550100298717   T   T   T
  5.5125639348504016  5.4987020749981665 20.9104209115727784   T   T   T
  2.8226750181290892  5.2359751083787005 24.1170278535839486   T   T   T
  2.7927645967424071  5.3365979408594297 22.9990205072007008   T   T   T
