H2S_Au100
 1.0000000000000000
    11.5399826689644573    0.0000000000000000    0.0000000000000000
     0.0000000000000000   11.5399826689644573    0.0000000000000000
     0.0000000000000000    0.0000000000000000   36.1199999999999974
 Au  S   H  
  64   1   2
Selective dynamics
Cartesian
  1.4424978336205572  1.4424978336205572 14.9999999999999982   F   F   F
  4.3274935008616717  1.4424978336205572 14.9999999999999982   F   F   F
  7.2124891681027856  1.4424978336205572 14.9999999999999982   F   F   F
 10.0974848353439004  1.4424978336205572 14.9999999999999982   F   F   F
  1.4424978336205572  4.3274935008616717 14.9999999999999982   F   F   F
  4.3274935008616717  4.3274935008616717 14.9999999999999982   F   F   F
  7.2124891681027856  4.3274935008616717 14.9999999999999982   F   F   F
 10.0974848353439004  4.3274935008616717 14.9999999999999982   F   F   F
  1.4424978336205572  7.2124891681027856 14.9999999999999982   F   F   F
  4.3274935008616717  7.2124891681027856 14.9999999999999982   F   F   F
  7.2124891681027856  7.2124891681027856 14.9999999999999982   F   F   F
 10.0974848353439004  7.2124891681027856 14.9999999999999982   F   F   F
  1.4424978336205572 10.0974848353439004 14.9999999999999982   F   F   F
  4.3274935008616717 10.0974848353439004 14.9999999999999982   F   F   F
  7.2124891681027856 10.0974848353439004 14.9999999999999982   F   F   F
 10.0974848353439004 10.0974848353439004 14.9999999999999982   F   F   F
  0.0000000000000000  0.0000000000000000 17.0399999999999991   F   F   F
  2.8849956672411143  0.0000000000000000 17.0399999999999991   F   F   F
  5.7699913344822287  0.0000000000000000 17.0399999999999991   F   F   F
  8.6549870017233435  0.0000000000000000 17.0399999999999991   F   F   F
  0.0000000000000000  2.8849956672411143 17.0399999999999991   F   F   F
  2.8849956672411143  2.8849956672411143 17.0399999999999991   F   F   F
  5.7699913344822287  2.8849956672411143 17.0399999999999991   F   F   F
  8.6549870017233435  2.8849956672411143 17.0399999999999991   F   F   F
  0.0000000000000000  5.7699913344822287 17.0399999999999991   F   F   F
  2.8849956672411143  5.7699913344822287 17.0399999999999991   F   F   F
  5.7699913344822287  5.7699913344822287 17.0399999999999991   F   F   F
  8.6549870017233435  5.7699913344822287 17.0399999999999991   F   F   F
  0.0000000000000000  8.6549870017233435 17.0399999999999991   F   F   F
  2.8849956672411143  8.6549870017233435 17.0399999999999991   F   F   F
  5.7699913344822287  8.6549870017233435 17.0399999999999991   F   F   F
  8.6549870017233435  8.6549870017233435 17.0399999999999991   F   F   F
  1.4425484905320933  1.4424674971628340 19.1848698392409034   T   T   T
  4.3272020958913515  1.4422913291967772 19.1850153686037324   T   T   T
  7.2119226684708027  1.4422417702115409 19.1827356999142076   T   T   T
 10.0979477363496066  1.4421498051416051 19.1837426469210683   T   T   T
  1.4429148355166797  4.3268126299655920 19.1836597809457565   T   T   T
  4.3258241147374523  4.3249807519914665 19.1812842596319193   T   T   T
  7.2138344562384642  4.3309508675738257 19.1909141866600343   T   T   T
 10.0956343097431258  4.3296535336271225 19.1881984047924590   T   T   T
  1.4428778633652881  7.2131141553425104 19.1827352379294460   T   T   T
  4.3264294353871149  7.2139090752199957 19.1823029011720294   T   T   T
  7.2143025712660309  7.2108231654893817 19.1908342262452152   T   T   T
 10.0946623360966967  7.2109075439138577 19.1908188522095031   T   T   T
  1.4429994991083146 10.0980042089430277 19.1846734415109772   T   T   T
  4.3255898312916337 10.0994815017614119 19.1826076366395633   T   T   T
  7.2102335989735282 10.0984406833128464 19.1826623948787436   T   T   T
 10.1004266922740609 10.0993560153386994 19.1809411005356125   T   T   T
 11.5398843003249123  0.0000469074727381 21.3078656730733051   T   T   T
  2.8848620041495079  0.0000445613600823 21.3070994150620656   T   T   T
  5.7716019929100355 11.5390620387530056 21.3080298100190326   T   T   T
  8.6533672804417492  0.0016565769653994 21.3109745330301976   T   T   T
 11.5394043407300604  2.8855233760146572 21.3079532319515330   T   T   T
  2.8846994350453210  2.8849589642288649 21.3073502406593889   T   T   T
  5.7717118359484969  2.8836055884881415 21.3067174474790377   T   T   T
  8.6544295192664773  2.8752740906316756 21.3051128367418521   T   T   T
  0.0097361687018346  5.7705509192904918 21.3044312511293477   T   T   T
  2.8838782685847315  5.7716659486909085 21.3098798060888264   T   T   T
  5.7504207463156591  5.7673054411776157 21.2931965492926523   T   T   T
  8.6666122353946395  5.7561546096956508 21.3104869017955565   T   T   T
  0.0026932948566320  8.6534476112640704 21.3062183425472078   T   T   T
  2.8855872809534846  8.6531641571154108 21.3081040094159349   T   T   T
  5.7662621199657611  8.6581711452012424 21.3028319547133229   T   T   T
  8.6591546109313544  8.6781820822151570 21.2860969000021463   T   T   T
  7.8219225994059922  6.7642834245669770 24.4409199999645672   T   T   T
  6.7007580256714636  6.5889720188353396 23.7000610924510156   T   T   T
  8.1078955352506874  7.8533454243885021 23.6805826763729392   T   T   T
