C2H6_Ir111
 1.0000000000000000
    10.8611601590253706    0.0000000000000000    0.0000000000000000
     0.0000000000000000    9.4060406122874021    0.0000000000000000
     0.0000000000000000    0.0000000000000000   36.6510751010644924
 Ir  C   H  
  64   2   6
Selective dynamics
Cartesian
  0.0000000000000000  0.0000000000000000 15.0000000000000018   F   F   F
  2.7152900397563422  0.0000000000000000 15.0000000000000018   F   F   F
  5.4305800795126844  0.0000000000000000 15.0000000000000018   F   F   F
  8.1458701192690270  0.0000000000000000 15.0000000000000018   F   F   F
  1.3576450198781711  2.3515101530718505 15.0000000000000018   F   F   F
  4.0729350596345135  2.3515101530718505 15.0000000000000018   F   F   F
  6.7882250993908571  2.3515101530718505 15.0000000000000018   F   F   F
  9.5035151391471988  2.3515101530718505 15.0000000000000018   F   F   F
  0.0000000000000000  4.7030203061437010 15.0000000000000018   F   F   F
  2.7152900397563422  4.7030203061437010 15.0000000000000018   F   F   F
  5.4305800795126844  4.7030203061437010 15.0000000000000018   F   F   F
  8.1458701192690270  4.7030203061437010 15.0000000000000018   F   F   F
  1.3576450198781711  7.0545304592155516 15.0000000000000018   F   F   F
  4.0729350596345135  7.0545304592155516 15.0000000000000018   F   F   F
  6.7882250993908571  7.0545304592155516 15.0000000000000018   F   F   F
  9.5035151391471988  7.0545304592155516 15.0000000000000018   F   F   F
  1.3576450198781711  0.7838367176906168 17.2170250336881665   F   F   F
  4.0729350596345135  0.7838367176906168 17.2170250336881665   F   F   F
  6.7882250993908571  0.7838367176906168 17.2170250336881665   F   F   F
  9.5035151391471988  0.7838367176906168 17.2170250336881665   F   F   F
  0.0000000000000000  3.1353468707624672 17.2170250336881665   F   F   F
  2.7152900397563422  3.1353468707624672 17.2170250336881665   F   F   F
  5.4305800795126844  3.1353468707624672 17.2170250336881665   F   F   F
  8.1458701192690270  3.1353468707624672 17.2170250336881665   F   F   F
  1.3576450198781711  5.4868570238343182 17.2170250336881665   F   F   F
  4.0729350596345135  5.4868570238343182 17.2170250336881665   F   F   F
  6.7882250993908571  5.4868570238343182 17.2170250336881665   F   F   F
  9.5035151391471988  5.4868570238343182 17.2170250336881665   F   F   F
  0.0000000000000000  7.8383671769061687 17.2170250336881665   F   F   F
  2.7152900397563422  7.8383671769061687 17.2170250336881665   F   F   F
  5.4305800795126844  7.8383671769061687 17.2170250336881665   F   F   F
  8.1458701192690270  7.8383671769061687 17.2170250336881665   F   F   F
 10.8610391036061138  1.5678368677009016 19.4472447479854509   T   T   T
  2.7157697178551694  1.5676115991136943 19.4471667557136669   T   T   T
  5.4300320950659300  1.5664319481750208 19.4477240856362670   T   T   T
  8.1455777132850233  1.5678447349941762 19.4469634350083318   T   T   T
  1.3564589389299697  3.9184821712827738 19.4469034328735866   T   T   T
  4.0741608182895233  3.9196005805480110 19.4530113224150973   T   T   T
  6.7876519085929807  3.9195051943793442 19.4531932679459523   T   T   T
  9.5039200261316861  3.9187378725815747 19.4464381890928983   T   T   T
 10.8609205302333596  6.2705972400151140 19.4469771700365790   T   T   T
  2.7151054294124175  6.2714405424040924 19.4515804609773326   T   T   T
  5.4303200669246463  6.2696174726294016 19.4557733891474669   T   T   T
  8.1462865831569342  6.2710248966946729 19.4493278675227046   T   T   T
  1.3568688332849419  8.6227144059748042 19.4469877823069233   T   T   T
  4.0725905890026830  8.6230550201943128 19.4479328313600632   T   T   T
  6.7885264859744581  8.6236292413531732 19.4464735153796759   T   T   T
  9.5036594391503399  8.6221936176125773 19.4469521824206915   T   T   T
 10.8607281969493794  0.0007843961463685 21.6602487826771224   T   T   T
  2.7134324668229328  9.4037677603439693 21.6605084304926550   T   T   T
  5.4310952691291190  9.4029104236341379 21.6608134266511776   T   T   T
  8.1473668524858613  9.4053409888504618 21.6607826285399447   T   T   T
  1.3577269954379567  2.3519580049767508 21.6598963738194534   T   T   T
  4.0733356837069925  2.3537115091255503 21.6581231728427959   T   T   T
  6.7879552294582552  2.3532447632566158 21.6574841231697697   T   T   T
  9.5030289694697956  2.3512024758529027 21.6598131281095583   T   T   T
  0.0005889213951684  4.7035936703020784 21.6608487859602441   T   T   T
  2.7164451754327579  4.7024322235355367 21.6528182786564614   T   T   T
  5.4300354882390440  4.7028823579412560 21.6536432655877888   T   T   T
  8.1454179976084244  4.7029260527820167 21.6555117441684999   T   T   T
  1.3598072460141892  7.0546490102235948 21.6592783650453811   T   T   T
  4.0736345090232664  7.0534913431021131 21.6527249949165999   T   T   T
  6.7863387479157407  7.0546715199396459 21.6565545748181094   T   T   T
  9.5032090181114182  7.0542053423932698 21.6601828153692466   T   T   T
  4.2653226688032131  5.6120956119290426 25.2042315747148500   T   T   T
  5.6584573472356547  5.0129389362532724 25.1262350008824882   T   T   T
  3.6394819221183821  5.1009565873592209 25.9482439296134189   T   T   T
  4.2899297606850944  6.6788018961059512 25.4636705296000088   T   T   T
  3.7332969136207867  5.5354274224880005 24.2432450417539975   T   T   T
  6.1645617972715483  5.0316683745205619 26.1024512067123275   T   T   T
  6.3026201215692241  5.5630771257467977 24.4223367811328878   T   T   T
  5.6351332343381069  3.9645466504262723 24.7900922812290112   T   T   T
