NH3_Ir100
 1.0000000000000000
     8.1458701192690270    0.0000000000000000    0.0000000000000000
     0.0000000000000000    8.1458701192690270    0.0000000000000000
     0.0000000000000000    0.0000000000000000   35.7599999999999980
 Ir  N   H  
  36   1   3
Selective dynamics
Cartesian
  1.3576450198781711  1.3576450198781711 15.0000000000000018   F   F   F
  4.0729350596345135  1.3576450198781711 15.0000000000000018   F   F   F
  6.7882250993908553  1.3576450198781711 15.0000000000000018   F   F   F
  1.3576450198781711  4.0729350596345135 15.0000000000000018   F   F   F
  4.0729350596345135  4.0729350596345135 15.0000000000000018   F   F   F
  6.7882250993908553  4.0729350596345135 15.0000000000000018   F   F   F
  1.3576450198781711  6.7882250993908553 15.0000000000000018   F   F   F
  4.0729350596345135  6.7882250993908553 15.0000000000000018   F   F   F
  6.7882250993908553  6.7882250993908553 15.0000000000000018   F   F   F
  0.0000000000000000  0.0000000000000000 16.9200000000000017   F   F   F
  2.7152900397563422  0.0000000000000000 16.9200000000000017   F   F   F
  5.4305800795126844  0.0000000000000000 16.9200000000000017   F   F   F
  0.0000000000000000  2.7152900397563422 16.9200000000000017   F   F   F
  2.7152900397563422  2.7152900397563422 16.9200000000000017   F   F   F
  5.4305800795126844  2.7152900397563422 16.9200000000000017   F   F   F
  0.0000000000000000  5.4305800795126844 16.9200000000000017   F   F   F
  2.7152900397563422  5.4305800795126844 16.9200000000000017   F   F   F
  5.4305800795126844  5.4305800795126844 16.9200000000000017   F   F   F
  1.3522603754052598  1.3572245649321328 18.8757623564793775   T   T   T
  4.0802629765155656  1.3571971395694669 18.8739986276890690   T   T   T
  6.7900448885346369  1.3571787354351748 18.8867189606424581   T   T   T
  1.3687522109902985  4.0845048158577804 18.8963890382136981   T   T   T
  4.0609591661703979  4.0845818823550477 18.8988657704458412   T   T   T
  6.7892059339993871  4.0665150054937325 18.8750216450217749   T   T   T
  1.3691775841944711  6.7762143439538098 18.8965773627987232   T   T   T
  4.0605472456177365  6.7762680338494095 18.8991677738303920   T   T   T
  6.7892473360071799  6.7942834652967230 18.8749773156430365   T   T   T
  0.0060596126816308  8.1402803755979303 20.7461070307221753   T   T   T
  2.7160799153973074  0.0162180610764230 20.7335850986166470   T   T   T
  5.4263437974586095  8.1403626731062904 20.7455656032200260   T   T   T
  0.0059066766918817  2.7204197689300895 20.7460038153628368   T   T   T
  2.7161623301956861  2.6976336932020430 20.7311632956219505   T   T   T
  5.4261434421104564  2.7206368700285704 20.7455498087984189   T   T   T
  8.1290533011604698  5.4304279050053319 20.7347135652112122   T   T   T
  2.7084453855753283  5.4302345997137031 20.8062997739015927   T   T   T
  5.4473828346871969  5.4305346145629132 20.7307698101882067   T   T   T
  2.7105720398841804  5.4098941006203196 22.9059344408043657   T   T   T
  2.2693395476401723  4.5426138282878856 23.2323085256770341   T   T   T
  3.6897567863546668  5.4488307456318905 23.2129066477653261   T   T   T
  2.1940597088406526  6.2267226809554277 23.2505870653876840   T   T   T
