CH3OH_Rh100
 1.0000000000000000
     8.0673812665573212    0.0000000000000000    0.0000000000000000
     0.0000000000000000    8.0673812665573212    0.0000000000000000
     0.0000000000000000    0.0000000000000000   35.7044999999999959
 Rh  C   O   H  
  36   1   1   4
Selective dynamics
Cartesian
  1.3445635444262201  1.3445635444262201 14.9999999999999964   F   F   F
  4.0336906332786597  1.3445635444262201 14.9999999999999964   F   F   F
  6.7228177221311043  1.3445635444262201 14.9999999999999964   F   F   F
  1.3445635444262201  4.0336906332786597 14.9999999999999964   F   F   F
  4.0336906332786597  4.0336906332786597 14.9999999999999964   F   F   F
  6.7228177221311043  4.0336906332786597 14.9999999999999964   F   F   F
  1.3445635444262201  6.7228177221311043 14.9999999999999964   F   F   F
  4.0336906332786597  6.7228177221311043 14.9999999999999964   F   F   F
  6.7228177221311043  6.7228177221311043 14.9999999999999964   F   F   F
  0.0000000000000000  0.0000000000000000 16.9014999999999986   F   F   F
  2.6891270888524401  0.0000000000000000 16.9014999999999986   F   F   F
  5.3782541777048802  0.0000000000000000 16.9014999999999986   F   F   F
  0.0000000000000000  2.6891270888524401 16.9014999999999986   F   F   F
  2.6891270888524401  2.6891270888524401 16.9014999999999986   F   F   F
  5.3782541777048802  2.6891270888524401 16.9014999999999986   F   F   F
  0.0000000000000000  5.3782541777048802 16.9014999999999986   F   F   F
  2.6891270888524401  5.3782541777048802 16.9014999999999986   F   F   F
  5.3782541777048802  5.3782541777048802 16.9014999999999986   F   F   F
  1.3621026725580014  1.3551203483351635 18.8560797168957741   T   T   T
  4.0257721841074243  1.3590398485234532 18.8619797528750510   T   T   T
  6.7256428690596817  1.3404175685280966 18.8365922761637208   T   T   T
  1.3544899730024949  4.0284418334774079 18.8492466043288260   T   T   T
  4.0247338737714209  4.0224717832921719 18.8557403797373233   T   T   T
  6.7238657491352418  4.0366622486688986 18.8382788099922642   T   T   T
  1.3452060505971180  6.7253677363113855 18.8407903395370155   T   T   T
  4.0383151647990747  6.7243723418239059 18.8387703871632830   T   T   T
  6.7240142080846450  6.7213431478826271 18.8430003784580222   T   T   T
  0.0066550021026295  0.0061732283706333 20.6932830584990270   T   T   T
  2.6971988528310029  8.0554898158884409 20.6876225332373771   T   T   T
  5.3829556819995501  0.0043093415950340 20.6923501530531659   T   T   T
  8.0568137841348850  2.6893883480785026 20.6720361347127408   T   T   T
  2.7099405673634367  2.6838346541235838 20.7923211554768343   T   T   T
  5.4008518183177925  2.6904377507353088 20.6919084042451473   T   T   T
  0.0112543362772182  5.3713576304753081 20.6926225417366716   T   T   T
  2.6933191020181675  5.3997094988994085 20.6795546628486910   T   T   T
  5.3783156255625428  5.3727496785884377 20.6945600125860842   T   T   T
  2.8804400110961836  1.9505385097031751 23.8440520003555534   T   T   T
  2.3930488370698120  2.9749548834538384 22.9544860069444674   T   T   T
  2.6783432604887722  2.2444867981170189 24.8817953364538731   T   T   T
  1.4082731767885215  3.0084623486868276 22.9806059471458717   T   T   T
  2.4067325753480859  0.9809459519235290 23.6353645313189702   T   T   T
  3.9615947396678148  1.8715873788360624 23.7024553112053837   T   T   T
