HCOOH_Ir100
 1.0000000000000000
     8.1458701192690270    0.0000000000000000    0.0000000000000000
     0.0000000000000000    8.1458701192690270    0.0000000000000000
     0.0000000000000000    0.0000000000000000   35.7599999999999980
 Ir  O   C   H  
  36   2   1   2
Selective dynamics
Cartesian
  1.3576450198781711  1.3576450198781711 15.0000000000000018   F   F   F
  4.0729350596345135  1.3576450198781711 15.0000000000000018   F   F   F
  6.7882250993908553  1.3576450198781711 15.0000000000000018   F   F   F
  1.3576450198781711  4.0729350596345135 15.0000000000000018   F   F   F
  4.0729350596345135  4.0729350596345135 15.0000000000000018   F   F   F
  6.7882250993908553  4.0729350596345135 15.0000000000000018   F   F   F
  1.3576450198781711  6.7882250993908553 15.0000000000000018   F   F   F
  4.0729350596345135  6.7882250993908553 15.0000000000000018   F   F   F
  6.7882250993908553  6.7882250993908553 15.0000000000000018   F   F   F
  0.0000000000000000  0.0000000000000000 16.9200000000000017   F   F   F
  2.7152900397563422  0.0000000000000000 16.9200000000000017   F   F   F
  5.4305800795126844  0.0000000000000000 16.9200000000000017   F   F   F
  0.0000000000000000  2.7152900397563422 16.9200000000000017   F   F   F
  2.7152900397563422  2.7152900397563422 16.9200000000000017   F   F   F
  5.4305800795126844  2.7152900397563422 16.9200000000000017   F   F   F
  0.0000000000000000  5.4305800795126844 16.9200000000000017   F   F   F
  2.7152900397563422  5.4305800795126844 16.9200000000000017   F   F   F
  5.4305800795126844  5.4305800795126844 16.9200000000000017   F   F   F
  1.3556821193758082  1.3501688840231618 18.8741991277024788   T   T   T
  4.0823800691081775  1.3730215806634176 18.9033202419458313   T   T   T
  6.7778450548191689  1.3689958741320214 18.8966530925250140   T   T   T
  1.3557990316149005  4.0792835565449481 18.8739859708372819   T   T   T
  4.0825212061378870  4.0567456678639902 18.9029312512715535   T   T   T
  6.7780402700117603  4.0598622006749636 18.8963118279833431   T   T   T
  1.3541029525426111  6.7878482360295598 18.8819653005394166   T   T   T
  4.0659974471127658  6.7879495135969421 18.8727255359424113   T   T   T
  6.7927687887557102  6.7874593527013278 18.8774552568259715   T   T   T
  8.1403415050551651  0.0100964696011930 20.7448754930091113   T   T   T
  2.7179046471699424  8.1394522396919502 20.7418822665904408   T   T   T
  5.4261773209966844  8.1232784654267771 20.7321268990183860   T   T   T
  0.0257089194754587  2.7143132921054089 20.7228696824417433   T   T   T
  2.7109669961746996  2.7155911931402654 20.7554331521120226   T   T   T
  5.4205180535204924  2.7150479969347412 20.8261511324411153   T   T   T
  8.1403733898439228  5.4180000321556836 20.7446523349651706   T   T   T
  2.7180112638387031  5.4363072691416763 20.7414870238266253   T   T   T
  5.4263111498990630  5.4513135718453682 20.7316818529723541   T   T   T
  3.4894435170720222  2.7146737335766771 23.6696598938304348   T   T   T
  5.6330240700661509  2.7130944956813083 22.8783993163529757   T   T   T
  4.7526078247187975  2.7083587660930002 23.7926663905154285   T   T   T
  3.1796994712957520  2.7200045549192624 22.4853584317534825   T   T   T
  5.1506787770426046  2.6962679184014431 24.8195711193052873   T   T   T
