C2H4_Pd110
 1.0000000000000000
    11.6699999999999999    0.0000000000000000    0.0000000000000000
     0.0000000000000000    5.5012907576313399    0.0000000000000000
     0.0000000000000000    0.0000000000000000   34.1259680682235071
 Pd  C   H  
  24   2   4
Selective dynamics
Cartesian
  1.9449999999999998  1.3753226894078348 14.9999999999999929   F   F   F
  5.8349999999999991  1.3753226894078348 14.9999999999999929   F   F   F
  9.7249999999999996  1.3753226894078348 14.9999999999999929   F   F   F
  1.9449999999999998  4.1259680682235054 14.9999999999999929   F   F   F
  5.8349999999999991  4.1259680682235054 14.9999999999999929   F   F   F
  9.7249999999999996  4.1259680682235054 14.9999999999999929   F   F   F
  0.0000000000000000  0.0000000000000000 16.3753226894078345   F   F   F
  3.8899999999999997  0.0000000000000000 16.3753226894078345   F   F   F
  7.7799999999999994  0.0000000000000000 16.3753226894078345   F   F   F
  0.0000000000000000  2.7506453788156695 16.3753226894078345   F   F   F
  3.8899999999999997  2.7506453788156695 16.3753226894078345   F   F   F
  7.7799999999999994  2.7506453788156695 16.3753226894078345   F   F   F
  1.9468440258002280  1.3706065124094400 17.8174981350287851   T   T   T
  5.8376537363806351  1.3673610778486702 17.8123430494708082   T   T   T
  9.7287150647818930  1.3703772264635370 17.8215574844870410   T   T   T
  1.9467194692594871  4.1118665775294030 17.8178802804428322   T   T   T
  5.8375115128661950  4.1155039657184398 17.8135850356371606   T   T   T
  9.7287122224424873  4.1237778823829476 17.8219215203448584   T   T   T
  0.0130682199577594  5.4943643197673309 19.1705447764165982   T   T   T
  3.8867564637024943  5.4814362155488956 19.1416409455647880   T   T   T
  7.7755986629926346  5.4942471340115375 19.1678993069088612   T   T   T
  0.0028686865749538  2.7437399122576753 19.1643753817979601   T   T   T
  3.9080622149930471  2.7342461506695903 19.2536487112090633   T   T   T
  7.7839324299263035  2.7432954637708069 19.1580016023349060   T   T   T
  3.3233714271267734  2.6796828113302054 21.2990427754023841   T   T   T
  4.7276455536867878  2.6464184576957575 21.2289492629237451   T   T   T
  2.8087773069823978  3.6078787395530378 21.5446540315600039   T   T   T
  2.7577707853974003  1.7630765902960255 21.4636263102353766   T   T   T
  5.3092903005536281  3.5477705024821140 21.4227911523348133   T   T   T
  5.2644192328138937  1.7043843799611762 21.3446932406284908   T   T   T
