N2_Ir110
 1.0000000000000000
    11.5199999999999996    0.0000000000000000    0.0000000000000000
     0.0000000000000000    5.4305800795126853    0.0000000000000000
     0.0000000000000000    0.0000000000000000   34.0729350596345171
 Ir  N  
  24   2
Selective dynamics
Cartesian
  1.9199999999999999  1.3576450198781711 15.0000000000000018   F   F   F
  5.7599999999999989  1.3576450198781711 15.0000000000000018   F   F   F
  9.5999999999999996  1.3576450198781711 15.0000000000000018   F   F   F
  1.9199999999999999  4.0729350596345135 15.0000000000000018   F   F   F
  5.7599999999999989  4.0729350596345135 15.0000000000000018   F   F   F
  9.5999999999999996  4.0729350596345135 15.0000000000000018   F   F   F
  0.0000000000000000  0.0000000000000000 16.3576450198781735   F   F   F
  3.8399999999999999  0.0000000000000000 16.3576450198781735   F   F   F
  7.6799999999999997  0.0000000000000000 16.3576450198781735   F   F   F
  0.0000000000000000  2.7152900397563422 16.3576450198781735   F   F   F
  3.8399999999999999  2.7152900397563422 16.3576450198781735   F   F   F
  7.6799999999999997  2.7152900397563422 16.3576450198781735   F   F   F
  1.9109682514023887  1.3556089243301637 17.7499680083935978   T   T   T
  5.7699864212037788  1.3517601589020150 17.7635510201438578   T   T   T
  9.6034020621409173  1.3552808090650208 17.7747534176291566   T   T   T
  1.9108259142843977  4.0736776208682368 17.7502221607588488   T   T   T
  5.7701631621435094  4.0775765051866903 17.7638419583156235   T   T   T
  9.6034214609451904  4.0751467941474946 17.7745908588078585   T   T   T
  0.0059560952258458  5.4305786305907517 19.0134413285344763   T   T   T
  3.8350519456690426  5.4290443033979852 18.9705695145330751   T   T   T
  7.6840721291084089  5.4304687740671591 19.0154192569590030   T   T   T
  0.0075993566281758  2.7151497977448753 19.0001959773862126   T   T   T
  3.8212070397518656  2.7139092233128657 19.0623240892115859   T   T   T
  7.6815606459880144  2.7151067183993991 18.9973307170266423   T   T   T
  4.1223926420802570  2.7048830726175908 20.9551941323556470   T   T   T
  4.2958060400209597  2.6956668384561508 22.0773046131932880   T   T   T
