H2S_Pd111
 1.0000000000000000
     8.2519361364470107    0.0000000000000000    0.0000000000000000
     4.1259680682235054    7.1463863245699208    0.0000000000000000
     0.0000000000000000    0.0000000000000000   36.7376776414429358
 Pd  S   H  
  36   1   2
Selective dynamics
Cartesian
  0.0000000000000000  0.0000000000000000 15.0000000000000000   F   F   F
  2.7506453788156700  0.0000000000000000 15.0000000000000000   F   F   F
  5.5012907576313399  0.0000000000000000 15.0000000000000000   F   F   F
  1.3753226894078350  2.3821287748566400 15.0000000000000000   F   F   F
  4.1259680682235054  2.3821287748566400 15.0000000000000000   F   F   F
  6.8766134470391753  2.3821287748566400 15.0000000000000000   F   F   F
  2.7506453788156700  4.7642575497132800 15.0000000000000000   F   F   F
  5.5012907576313399  4.7642575497132800 15.0000000000000000   F   F   F
  8.2519361364470107  4.7642575497132800 15.0000000000000000   F   F   F
  1.3753226894078350  0.7940429249522137 17.2458925471476441   F   F   F
  4.1259680682235045  0.7940429249522137 17.2458925471476441   F   F   F
  6.8766134470391744  0.7940429249522137 17.2458925471476441   F   F   F
  2.7506453788156700  3.1761716998088549 17.2458925471476441   F   F   F
  5.5012907576313399  3.1761716998088549 17.2458925471476441   F   F   F
  8.2519361364470090  3.1761716998088549 17.2458925471476441   F   F   F
  4.1259680682235054  5.5583004746654945 17.2458925471476441   F   F   F
  6.8766134470391753  5.5583004746654945 17.2458925471476441   F   F   F
  9.6272588258548453  5.5583004746654945 17.2458925471476441   F   F   F
  8.2546351251530243  1.6076409532391969 19.5584564906062930   T   T   T
  2.7466059628942050  1.5956984406147079 19.5321080441403900   T   T   T
  5.4937209731679575  1.6019239315523990 19.5419106383570416   T   T   T
  9.6169152788649335  3.9689290068104572 19.5475073743118877   T   T   T
  4.1169468486415930  3.9780471076585839 19.5328580025650993   T   T   T
  6.8647054430765104  3.9827043189819040 19.5275221051256587   T   T   T
 10.9948588163875254  6.3641380230338260 19.5286367958670581   T   T   T
  5.4915916594709522  6.3611897926892436 19.5287095437731537   T   T   T
  8.2453023493448541  6.3584431816504940 19.5323620721594544   T   T   T
  8.2160207740421320  0.0074233984136658 21.8402890554580615   T   T   T
  2.7320220985188914  0.0008136000689421 21.8237170179697735   T   T   T
  5.4796030793249386  0.0200369628183593 21.8479156931481278   T   T   T
  9.5998530869594472  2.3968531293493238 21.9065256664016381   T   T   T
  4.1147290295898538  2.4060660743309659 21.8761409235688937   T   T   T
  6.8389827820371361  2.4085435866100999 21.8533591893628412   T   T   T
 10.9798410110856501  4.8046655979419901 21.8258543704610339   T   T   T
  5.4790741893557655  4.7840018770645463 21.8367235042836221   T   T   T
  8.2169200130376652  4.7928458479015426 21.8455806483749235   T   T   T
  2.0738176580850176  2.2036448467864092 24.0984082022461159   T   T   T
  2.3243774969819162  0.8469640204939777 24.0605972740653726   T   T   T
  3.4554608991318290  2.4399567097297035 23.6324290641123689   T   T   T
