CH3CHO_Au110
 1.0000000000000000
    16.3200000000000003    0.0000000000000000    0.0000000000000000
     0.0000000000000000   11.5399826689644573    0.0000000000000000
     0.0000000000000000    0.0000000000000000   34.3274935008616708
 Au  C   O   H  
  64   2   1   4
Selective dynamics
Cartesian
  2.0400000000000000  1.4424978336205572 14.9999999999999964   F   F   F
  6.1200000000000001  1.4424978336205572 14.9999999999999964   F   F   F
 10.1999999999999922  1.4424978336205572 14.9999999999999964   F   F   F
 14.2800000000000011  1.4424978336205572 14.9999999999999964   F   F   F
  2.0400000000000000  4.3274935008616717 14.9999999999999964   F   F   F
  6.1200000000000001  4.3274935008616717 14.9999999999999964   F   F   F
 10.1999999999999922  4.3274935008616717 14.9999999999999964   F   F   F
 14.2800000000000011  4.3274935008616717 14.9999999999999964   F   F   F
  2.0400000000000000  7.2124891681027856 14.9999999999999964   F   F   F
  6.1200000000000001  7.2124891681027856 14.9999999999999964   F   F   F
 10.1999999999999922  7.2124891681027856 14.9999999999999964   F   F   F
 14.2800000000000011  7.2124891681027856 14.9999999999999964   F   F   F
  2.0400000000000000 10.0974848353439004 14.9999999999999964   F   F   F
  6.1200000000000001 10.0974848353439004 14.9999999999999964   F   F   F
 10.1999999999999922 10.0974848353439004 14.9999999999999964   F   F   F
 14.2800000000000011 10.0974848353439004 14.9999999999999964   F   F   F
  0.0000000000000000  0.0000000000000000 16.4424978336205569   F   F   F
  4.0800000000000001  0.0000000000000000 16.4424978336205569   F   F   F
  8.1600000000000001  0.0000000000000000 16.4424978336205569   F   F   F
 12.2400000000000002  0.0000000000000000 16.4424978336205569   F   F   F
  0.0000000000000000  2.8849956672411143 16.4424978336205569   F   F   F
  4.0800000000000001  2.8849956672411143 16.4424978336205569   F   F   F
  8.1600000000000001  2.8849956672411143 16.4424978336205569   F   F   F
 12.2400000000000002  2.8849956672411143 16.4424978336205569   F   F   F
  0.0000000000000000  5.7699913344822287 16.4424978336205569   F   F   F
  4.0800000000000001  5.7699913344822287 16.4424978336205569   F   F   F
  8.1600000000000001  5.7699913344822287 16.4424978336205569   F   F   F
 12.2400000000000002  5.7699913344822287 16.4424978336205569   F   F   F
  0.0000000000000000  8.6549870017233435 16.4424978336205569   F   F   F
  4.0800000000000001  8.6549870017233435 16.4424978336205569   F   F   F
  8.1600000000000001  8.6549870017233435 16.4424978336205569   F   F   F
 12.2400000000000002  8.6549870017233435 16.4424978336205569   F   F   F
  2.0400796012438360  1.4431659769548681 18.0657664328067114   T   T   T
  6.1106090639845565  1.4395214527914366 18.0625192150246470   T   T   T
 10.2114176547687183  1.4394573456859692 18.0583059088744058   T   T   T
 14.2796965608258475  1.4428775261849540 18.0663333368106009   T   T   T
  2.0403938696438004  4.3275360800604341 18.0665903863635116   T   T   T
  6.1291733394397667  4.3292875480424895 18.0612433380530781   T   T   T
 10.1881565161491334  4.3304102289160706 18.0749900818672522   T   T   T
 14.2814164013933613  4.3266088580277140 18.0651651257529657   T   T   T
  2.0403681851251227  7.2122536226533542 18.0667756919397107   T   T   T
  6.1271780482861784  7.2106707965674230 18.0600434382091706   T   T   T
 10.1889554979975454  7.2100494320403072 18.0750271482670151   T   T   T
 14.2819849979118771  7.2131984317272551 18.0646640625941437   T   T   T
  2.0399900016726606 10.0969483372580200 18.0657692556048737   T   T   T
  6.1100249765122019 10.1014033513372397 18.0616561733872345   T   T   T
 10.2109523165783518 10.0998082384601950 18.0582275937997352   T   T   T
 14.2804413129711456 10.0976635840644260 18.0659393461071822   T   T   T
  0.0002870708269527  0.0001340114051329 19.4099850161599328   T   T   T
  4.0759122459276043  0.0000751810782507 19.4112366683021094   T   T   T
  8.1616385327747150 11.5399826029639883 19.4075784794813302   T   T   T
 12.2437760224897296 11.5397142489099895 19.4125556341143160   T   T   T
  0.0004473554777225  2.8851764578358150 19.4098564406496834   T   T   T
  4.0824952275592272  2.8892902637927786 19.4088393334154468   T   T   T
  8.1573235465368654  2.8544831277425553 19.3896801964330976   T   T   T
 12.2382860904893178  2.8895257118594131 19.4087876206876793   T   T   T
  0.0002419817108212  5.7699170997286116 19.4099858144333517   T   T   T
  4.0843897676240344  5.7697124907808188 19.4047121038906099   T   T   T
  8.1727417832988802  5.7748224709125537 19.4434705987552228   T   T   T
 12.2436074508958423  5.7702740812308271 19.4035302117444779   T   T   T
  0.0005989470887446  8.6548337720321342 19.4098946158375760   T   T   T
  4.0821703131604634  8.6508456826851958 19.4086959974413276   T   T   T
  8.1548722496456154  8.6871252060694104 19.3889390715657512   T   T   T
 12.2399954832077213  8.6511674788278441 19.4073056688653800   T   T   T
  9.5038874084067348  6.0078217940287537 22.9768851188226080   T   T   T
  8.0308103892585905  5.8006418657878411 22.8859730176602696   T   T   T
  7.3792647679256751  5.7363708816164420 21.8406496622439832   T   T   T
  9.7257805526999981  6.9353591227362115 23.5296498713621851   T   T   T
  9.9806419709408267  5.1980548377415694 23.5521793766783532   T   T   T
  9.9377092186589540  6.0650725762959983 21.9767953600098558   T   T   T
  7.4975619724344993  5.7029984576204082 23.8554833300976554   T   T   T
