CH3COOH_Ag111
 1.0000000000000000
     8.6762002051589384    0.0000000000000000    0.0000000000000000
     4.3381001025794710    7.5138097859873962    0.0000000000000000
     0.0000000000000000    0.0000000000000000   37.0840878029567094
 Ag  C   O   H  
  36   2   2   4
Selective dynamics
Cartesian
  0.0000000000000000  0.0000000000000000 14.9999999999999982   F   F   F
  2.8920667350529787  0.0000000000000000 14.9999999999999982   F   F   F
  5.7841334701059575  0.0000000000000000 14.9999999999999982   F   F   F
  1.4460333675264903  2.5046032619957987 14.9999999999999982   F   F   F
  4.3381001025794692  2.5046032619957987 14.9999999999999982   F   F   F
  7.2301668376324475  2.5046032619957987 14.9999999999999982   F   F   F
  2.8920667350529805  5.0092065239915975 14.9999999999999982   F   F   F
  5.7841334701059592  5.0092065239915975 14.9999999999999982   F   F   F
  8.6762002051589384  5.0092065239915975 14.9999999999999982   F   F   F
  1.4460333675264898  0.8348677539985995 17.3613626009855686   F   F   F
  4.3381001025794683  0.8348677539985995 17.3613626009855686   F   F   F
  7.2301668376324484  0.8348677539985995 17.3613626009855686   F   F   F
  2.8920667350529801  3.3394710159943979 17.3613626009855686   F   F   F
  5.7841334701059592  3.3394710159943979 17.3613626009855686   F   F   F
  8.6762002051589384  3.3394710159943979 17.3613626009855686   F   F   F
  4.3381001025794710  5.8440742779901944 17.3613626009855686   F   F   F
  7.2301668376324493  5.8440742779901944 17.3613626009855686   F   F   F
 10.1222335726854276  5.8440742779901944 17.3613626009855686   F   F   F
  8.6789156294554832  1.6702089509271718 19.7564151718507297   T   T   T
  2.8896610023937623  1.6705924609686806 19.7573094662240578   T   T   T
  5.7838562355101155  1.6703819702599045 19.7677341228322234   T   T   T
 10.1234606642500395  4.1722663222345524 19.7582899344971814   T   T   T
  4.3469116439200324  4.1789762316495827 19.7863283640845289   T   T   T
  7.2227550294476215  4.1783944133776290 19.7901619071225632   T   T   T
 11.5672779901863034  6.6795205492942475 19.7599073668512375   T   T   T
  5.7845119208946461  6.6675347415630544 19.7852034388181188   T   T   T
  8.6761918805823779  6.6797926049573952 19.7656001306822731   T   T   T
  8.6732233979313627  0.0021741479457245 22.1786947918918962   T   T   T
  2.8931672684752701  0.0060755984027530 22.1731333955507957   T   T   T
 10.1245432865329636  7.5128384711267584 22.1918281123054726   T   T   T
 10.1207075821308816  2.5056125512643956 22.1844445001116917   T   T   T
  4.3322837167852315  2.4983332829786780 22.1726892415539751   T   T   T
  7.2358540205745383  2.4926521967830948 22.1724408644010751   T   T   T
 11.5638266144395505  5.0121338372961839 22.1792864029352224   T   T   T
  5.7800663259422338  5.0114329849265156 22.2565438563125113   T   T   T
  8.6867203826877937  5.0111251625711111 22.1717828454357075   T   T   T
  5.5870784671898566  4.8957406425817034 27.2566979480415448   T   T   T
  5.3684026657701773  5.1558287838666930 25.8055896809488416   T   T   T
  6.0320759383864528  4.6741463559056351 24.8832031771100901   T   T   T
  4.3301727638127527  5.9961317846402746 25.5965493789463672   T   T   T
  5.6374691246398649  5.8490892229644542 27.7933655473702359   T   T   T
  6.4946416241283158  4.3139675176435457 27.4078141392600543   T   T   T
  4.7257449571554133  4.3417851251076618 27.6485289867704402   T   T   T
  4.2527129388092737  6.1126381292606027 24.6176941926541666   T   T   T
