CH3CHO_Pt100
 1.0000000000000000
     8.3155757467537992    0.0000000000000000    0.0000000000000000
     0.0000000000000000    8.3155757467537992    0.0000000000000000
     0.0000000000000000    0.0000000000000000   35.8800000000000026
 Pt  C   O   H  
  36   2   1   4
Selective dynamics
Cartesian
  1.3859292911256331  1.3859292911256331 15.0000000000000018   F   F   F
  4.1577878733768996  1.3859292911256331 15.0000000000000018   F   F   F
  6.9296464556281654  1.3859292911256331 15.0000000000000018   F   F   F
  1.3859292911256331  4.1577878733768996 15.0000000000000018   F   F   F
  4.1577878733768996  4.1577878733768996 15.0000000000000018   F   F   F
  6.9296464556281654  4.1577878733768996 15.0000000000000018   F   F   F
  1.3859292911256331  6.9296464556281654 15.0000000000000018   F   F   F
  4.1577878733768996  6.9296464556281654 15.0000000000000018   F   F   F
  6.9296464556281654  6.9296464556281654 15.0000000000000018   F   F   F
  0.0000000000000000  0.0000000000000000 16.9600000000000009   F   F   F
  2.7718585822512662  0.0000000000000000 16.9600000000000009   F   F   F
  5.5437171645025325  0.0000000000000000 16.9600000000000009   F   F   F
  0.0000000000000000  2.7718585822512662 16.9600000000000009   F   F   F
  2.7718585822512662  2.7718585822512662 16.9600000000000009   F   F   F
  5.5437171645025325  2.7718585822512662 16.9600000000000009   F   F   F
  0.0000000000000000  5.5437171645025325 16.9600000000000009   F   F   F
  2.7718585822512662  5.5437171645025325 16.9600000000000009   F   F   F
  5.5437171645025325  5.5437171645025325 16.9600000000000009   F   F   F
  1.3927490062151542  1.3926627027958638 18.9590841579099418   T   T   T
  4.1496093772265192  1.3945186660019575 18.9631107600006246   T   T   T
  6.9282060479524601  1.3861773298619886 18.9515697291506449   T   T   T
  1.3909363108878778  4.1514732398065171 18.9549641715737103   T   T   T
  4.1520481080993399  4.1518246374807752 18.9558803651446830   T   T   T
  6.9303499125786550  4.1588849470514386 18.9525297535150088   T   T   T
  1.3810748206317349  6.9260011022600159 18.9460025923586066   T   T   T
  4.1609319334098691  6.9287816965848883 18.9485139586033036   T   T   T
  6.9285257840771797  6.9296191758846399 18.9532434478414125   T   T   T
  8.3149657576335869  0.0058552607513882 20.9367889121475059   T   T   T
  2.7665151550428382  8.2915925361127023 20.9123278528490495   T   T   T
  5.5412143541082104  0.0082044623921615 20.9423585529030305   T   T   T
  0.0027757548487363  2.7726350414204801 20.9384874068463454   T   T   T
  2.7743403598654459  2.7776018929941624 21.0068393759453826   T   T   T
  5.5457239057233956  2.7762979682419395 20.9343722359613658   T   T   T
  0.0029807202120096  5.5440497962875446 20.9384556752240201   T   T   T
  2.7720969347541327  5.5397240724828771 20.9365706862513754   T   T   T
  5.5381438616005818  5.5459098428768083 20.9394631891067284   T   T   T
  3.1778784931622930  0.7961628585214365 24.1126254595226541   T   T   T
  2.8789631594977125  2.2589884682068941 23.9975567433395867   T   T   T
  2.7928937651848931  3.0955193594498556 24.8528641510002011   T   T   T
  2.3449361179228529  0.2197113130068314 23.6818793976987862   T   T   T
  4.0722851760942138  0.5673117673061950 23.5138327135824881   T   T   T
  3.3333234102597742  0.5293448206543913 25.1626103493080002   T   T   T
  2.7075268224548061  2.5759036174965395 22.8370419019124995   T   T   T
