H2S_Cu100
 1.0000000000000000
    10.2106219203337467    0.0000000000000000    0.0000000000000000
     0.0000000000000000   10.2106219203337467    0.0000000000000000
     0.0000000000000000    0.0000000000000000   35.4149999999999991
 Cu  S   H  
  64   1   2
Selective dynamics
Cartesian
  1.2763277400417183  1.2763277400417183 15.0000000000000000   F   F   F
  3.8289832201251550  1.2763277400417183 15.0000000000000000   F   F   F
  6.3816387002085921  1.2763277400417183 15.0000000000000000   F   F   F
  8.9342941802920279  1.2763277400417183 15.0000000000000000   F   F   F
  1.2763277400417183  3.8289832201251550 15.0000000000000000   F   F   F
  3.8289832201251550  3.8289832201251550 15.0000000000000000   F   F   F
  6.3816387002085921  3.8289832201251550 15.0000000000000000   F   F   F
  8.9342941802920279  3.8289832201251550 15.0000000000000000   F   F   F
  1.2763277400417183  6.3816387002085921 15.0000000000000000   F   F   F
  3.8289832201251550  6.3816387002085921 15.0000000000000000   F   F   F
  6.3816387002085921  6.3816387002085921 15.0000000000000000   F   F   F
  8.9342941802920279  6.3816387002085921 15.0000000000000000   F   F   F
  1.2763277400417183  8.9342941802920279 15.0000000000000000   F   F   F
  3.8289832201251550  8.9342941802920279 15.0000000000000000   F   F   F
  6.3816387002085921  8.9342941802920279 15.0000000000000000   F   F   F
  8.9342941802920279  8.9342941802920279 15.0000000000000000   F   F   F
  0.0000000000000000  0.0000000000000000 16.8049999999999997   F   F   F
  2.5526554800834367  0.0000000000000000 16.8049999999999997   F   F   F
  5.1053109601668734  0.0000000000000000 16.8049999999999997   F   F   F
  7.6579664402503100  0.0000000000000000 16.8049999999999997   F   F   F
  0.0000000000000000  2.5526554800834367 16.8049999999999997   F   F   F
  2.5526554800834367  2.5526554800834367 16.8049999999999997   F   F   F
  5.1053109601668734  2.5526554800834367 16.8049999999999997   F   F   F
  7.6579664402503100  2.5526554800834367 16.8049999999999997   F   F   F
  0.0000000000000000  5.1053109601668734 16.8049999999999997   F   F   F
  2.5526554800834367  5.1053109601668734 16.8049999999999997   F   F   F
  5.1053109601668734  5.1053109601668734 16.8049999999999997   F   F   F
  7.6579664402503100  5.1053109601668734 16.8049999999999997   F   F   F
  0.0000000000000000  7.6579664402503100 16.8049999999999997   F   F   F
  2.5526554800834367  7.6579664402503100 16.8049999999999997   F   F   F
  5.1053109601668734  7.6579664402503100 16.8049999999999997   F   F   F
  7.6579664402503100  7.6579664402503100 16.8049999999999997   F   F   F
  1.2772085718450827  1.2754829117471393 18.6395577114319906   T   T   T
  3.8278185506416960  1.2719755256572838 18.6360418666472576   T   T   T
  6.3827015830972433  1.2731234938546256 18.6358919804065621   T   T   T
  8.9331941510478483  1.2762269282572676 18.6397231994391497   T   T   T
  1.2764250554730714  3.8274937832435167 18.6375738561557931   T   T   T
  3.8196786742600173  3.8277262924917719 18.6287458630198266   T   T   T
  6.3904642160654488  3.8288841101021642 18.6299621890467293   T   T   T
  8.9346598014122591  3.8278010867656627 18.6365817643992813   T   T   T
  1.2785921062784864  6.3781173166141567 18.6354135743325600   T   T   T
  3.8421442295127579  6.3974546682007638 18.6619081909607125   T   T   T
  6.3680542990130951  6.3974286579723882 18.6604146940936246   T   T   T
  8.9316712003725929  6.3777915517700192 18.6345020929210889   T   T   T
  1.2782473028999690  8.9365450874142773 18.6336969175958735   T   T   T
  3.8443717887393745  8.9163707812469557 18.6680977880229015   T   T   T
  6.3655706514466397  8.9172917384131019 18.6674507356492327   T   T   T
  8.9332006696221971  8.9391282067055702 18.6316919777645289   T   T   T
  0.0004907428736060 10.2058977595454117 20.4150812099982204   T   T   T
  2.5495130269889139  0.0012522020899718 20.4257804422250651   T   T   T
  5.1054741192975470  0.0268224461362009 20.4246301458746089   T   T   T
  7.6612507052007066  0.0031591133436046 20.4249847130805335   T   T   T
 10.2101775213387693  2.5506379891488105 20.4223950801628042   T   T   T
  2.5562639274598862  2.5506523690763192 20.4171716120540658   T   T   T
  5.1041583076064319  2.5486540530886290 20.4179126923642471   T   T   T
  7.6521962455553494  2.5537763296373379 20.4183458150287933   T   T   T
  0.0004079796458944  5.1094414054106911 20.4187271704399080   T   T   T
  2.5502364927835250  5.1004069359616881 20.4237193688039760   T   T   T
  5.1052615763007632  5.0618809648909995 20.3930377303705903   T   T   T
  7.6625470552486377  5.1029263962259996 20.4229892356621718   T   T   T
 10.2101637894657440  7.6576254442982199 20.4181089121326522   T   T   T
  2.5220493720930617  7.6572000457780263 20.4168134797975718   T   T   T
  5.1036644770082189  7.6627128753497464 20.5675276082625373   T   T   T
  7.6897895494505137  7.6596505646111304 20.4091269812734950   T   T   T
  5.1848537140330206  7.2160266205236985 23.0926735739489217   T   T   T
  4.3328237772437346  6.1716617877118374 22.9463100392408457   T   T   T
  6.2547536175321810  6.4017373113812139 22.9177693626706152   T   T   T
