CH3_Cu111
 1.0000000000000000
    10.2106219203337467    0.0000000000000000    0.0000000000000000
     0.0000000000000000    8.8426579714472719    0.0000000000000000
     0.0000000000000000    0.0000000000000000   36.2527034153236514
 Cu  C   H  
  64   1   3
Selective dynamics
Cartesian
  0.0000000000000000  0.0000000000000000 15.0000000000000000   F   F   F
  2.5526554800834367  0.0000000000000000 15.0000000000000000   F   F   F
  5.1053109601668734  0.0000000000000000 15.0000000000000000   F   F   F
  7.6579664402503100  0.0000000000000000 15.0000000000000000   F   F   F
  1.2763277400417183  2.2106644928618180 15.0000000000000000   F   F   F
  3.8289832201251550  2.2106644928618180 15.0000000000000000   F   F   F
  6.3816387002085921  2.2106644928618180 15.0000000000000000   F   F   F
  8.9342941802920279  2.2106644928618180 15.0000000000000000   F   F   F
  0.0000000000000000  4.4213289857236360 15.0000000000000000   F   F   F
  2.5526554800834367  4.4213289857236360 15.0000000000000000   F   F   F
  5.1053109601668734  4.4213289857236360 15.0000000000000000   F   F   F
  7.6579664402503100  4.4213289857236360 15.0000000000000000   F   F   F
  1.2763277400417183  6.6319934785854526 15.0000000000000000   F   F   F
  3.8289832201251550  6.6319934785854526 15.0000000000000000   F   F   F
  6.3816387002085921  6.6319934785854526 15.0000000000000000   F   F   F
  8.9342941802920279  6.6319934785854526 15.0000000000000000   F   F   F
  1.2763277400417183  0.7368881642872727 17.0842344717745505   F   F   F
  3.8289832201251550  0.7368881642872727 17.0842344717745505   F   F   F
  6.3816387002085921  0.7368881642872727 17.0842344717745505   F   F   F
  8.9342941802920279  0.7368881642872727 17.0842344717745505   F   F   F
  0.0000000000000000  2.9475526571490906 17.0842344717745505   F   F   F
  2.5526554800834367  2.9475526571490906 17.0842344717745505   F   F   F
  5.1053109601668734  2.9475526571490906 17.0842344717745505   F   F   F
  7.6579664402503100  2.9475526571490906 17.0842344717745505   F   F   F
  1.2763277400417183  5.1582171500109091 17.0842344717745505   F   F   F
  3.8289832201251550  5.1582171500109091 17.0842344717745505   F   F   F
  6.3816387002085921  5.1582171500109091 17.0842344717745505   F   F   F
  8.9342941802920279  5.1582171500109091 17.0842344717745505   F   F   F
  0.0000000000000000  7.3688816428727266 17.0842344717745505   F   F   F
  2.5526554800834367  7.3688816428727266 17.0842344717745505   F   F   F
  5.1053109601668734  7.3688816428727266 17.0842344717745505   F   F   F
  7.6579664402503100  7.3688816428727266 17.0842344717745505   F   F   F
 10.2102930401992626  1.4676947405519218 19.1610020491223700   T   T   T
  2.5496688023230143  1.4756424666266319 19.1579722103554246   T   T   T
  5.1049515462770270  1.4824176399491396 19.1541364001180447   T   T   T
  7.6605841036000770  1.4758657503938581 19.1574804417401232   T   T   T
  1.2748440093055755  3.6794967582246683 19.1575212814060016   T   T   T
  3.8480822343265153  3.6991074129685884 19.1859423191394534   T   T   T
  6.3618029214452898  3.7004561995281984 19.1852969612530657   T   T   T
  8.9339314109305441  3.6801032951493315 19.1585321050179829   T   T   T
 10.2103845923738596  5.8922291849278583 19.1607236039719417   T   T   T
  2.5520156400766902  5.8950500598276729 19.1564072089606547   T   T   T
  5.1041316069562397  5.8790878820006141 19.1815718277612284   T   T   T
  7.6584573967094203  5.8943017650925853 19.1564267656842659   T   T   T
  1.2744111230705455  8.1047661587978883 19.1631071838904177   T   T   T
  3.8287973140339813  8.1093941911192662 19.1571450844447284   T   T   T
  6.3818016868121061  8.1091277657431693 19.1564444053709089   T   T   T
  8.9364514246118141  8.1048283087827215 19.1632007880671047   T   T   T
  0.0001517113894869  8.8423602509098504 21.2598484839417097   T   T   T
  2.5511923196523796  0.0027595250546764 21.2551974478857133   T   T   T
  5.1059574259436644  0.0033802360443749 21.2390135731660159   T   T   T
  7.6593237324873060  0.0034055885481184 21.2551593233380984   T   T   T
  1.2730668380014809  2.2068679666678039 21.2492584629919463   T   T   T
  3.8214382660077133  2.1990113328601559 21.2221955232105373   T   T   T
  6.3890373440174919  2.1996351564474841 21.2193791887057586   T   T   T
  8.9363432497217641  2.2066671629213470 21.2491391451965548   T   T   T
 10.2089940717957450  4.4183220086602821 21.2547031271119273   T   T   T
  2.5281669426208344  4.4217125520689420 21.2187890267628063   T   T   T
  5.1058533775335526  4.4346713816158534 21.4175329505178560   T   T   T
  7.6793205992187259  4.4224594748385746 21.2242437759118658   T   T   T
  1.2698931729438510  6.6346027238267764 21.2499706382026332   T   T   T
  3.8141255849946578  6.6516775496726765 21.2195316894975932   T   T   T
  6.3956451058055830  6.6513741648476596 21.2156619431087563   T   T   T
  8.9387385141085094  6.6347072292783302 21.2503016693841502   T   T   T
  5.0950827505715788  4.5708394871896401 23.4081069789650762   T   T   T
  5.7622491055269807  5.3796405102195459 23.7250680601436024   T   T   T
  5.4456714298452367  3.6040550736289401 23.7836301305015994   T   T   T
  4.0668522230704980  4.7675425618130749 23.7277577341729611   T   T   T
