CO2_Pd110
 1.0000000000000000
    11.6699999999999999    0.0000000000000000    0.0000000000000000
     0.0000000000000000    5.5012907576313399    0.0000000000000000
     0.0000000000000000    0.0000000000000000   34.1259680682235071
 Pd  C   O  
  24   1   2
Selective dynamics
Cartesian
  1.9449999999999998  1.3753226894078348 14.9999999999999929   F   F   F
  5.8349999999999991  1.3753226894078348 14.9999999999999929   F   F   F
  9.7249999999999996  1.3753226894078348 14.9999999999999929   F   F   F
  1.9449999999999998  4.1259680682235054 14.9999999999999929   F   F   F
  5.8349999999999991  4.1259680682235054 14.9999999999999929   F   F   F
  9.7249999999999996  4.1259680682235054 14.9999999999999929   F   F   F
  0.0000000000000000  0.0000000000000000 16.3753226894078345   F   F   F
  3.8899999999999997  0.0000000000000000 16.3753226894078345   F   F   F
  7.7799999999999994  0.0000000000000000 16.3753226894078345   F   F   F
  0.0000000000000000  2.7506453788156695 16.3753226894078345   F   F   F
  3.8899999999999997  2.7506453788156695 16.3753226894078345   F   F   F
  7.7799999999999994  2.7506453788156695 16.3753226894078345   F   F   F
  1.9453822163511070  1.3751614952306694 17.8240933427233159   T   T   T
  5.8342857357923883  1.3759259507920858 17.8238533460553228   T   T   T
  9.7254819632311360  1.3752038931683099 17.8241935699520333   T   T   T
  1.9450131498953562  4.1262435718153467 17.8237965698545793   T   T   T
  5.8358504810476797  4.1250981088313639 17.8259552228870213   T   T   T
  9.7248276399816209  4.1258175255018212 17.8241928010729751   T   T   T
 11.6698935761720488  0.0002588752763061 19.1693145026437790   T   T   T
  3.8890126481799858  5.5003413242653609 19.1696408963384748   T   T   T
  7.7810147255884781  5.5003325995688446 19.1666158103753581   T   T   T
 11.6695716971749182  2.7504406385199571 19.1692111278724262   T   T   T
  3.8900295966451535  2.7514028273641369 19.1673279964355352   T   T   T
  7.7797663909201651  2.7521032509127146 19.1693546751304247   T   T   T
  6.2187628346432664  0.9349622616452651 22.1380699051321805   T   T   T
  7.1687567962031284  1.6290865225331141 22.1839149991320213   T   T   T
  5.2620213787997372  0.2502895304288545 22.1233414051637993   T   T   T
