CH3OCH3_Ir111
 1.0000000000000000
    10.8611601590253706    0.0000000000000000    0.0000000000000000
     0.0000000000000000    9.4060406122874021    0.0000000000000000
     0.0000000000000000    0.0000000000000000   36.6510751010644924
 Ir  C   O   H  
  64   2   1   6
Selective dynamics
Cartesian
  0.0000000000000000  0.0000000000000000 15.0000000000000018   F   F   F
  2.7152900397563422  0.0000000000000000 15.0000000000000018   F   F   F
  5.4305800795126844  0.0000000000000000 15.0000000000000018   F   F   F
  8.1458701192690270  0.0000000000000000 15.0000000000000018   F   F   F
  1.3576450198781711  2.3515101530718505 15.0000000000000018   F   F   F
  4.0729350596345135  2.3515101530718505 15.0000000000000018   F   F   F
  6.7882250993908571  2.3515101530718505 15.0000000000000018   F   F   F
  9.5035151391471988  2.3515101530718505 15.0000000000000018   F   F   F
  0.0000000000000000  4.7030203061437010 15.0000000000000018   F   F   F
  2.7152900397563422  4.7030203061437010 15.0000000000000018   F   F   F
  5.4305800795126844  4.7030203061437010 15.0000000000000018   F   F   F
  8.1458701192690270  4.7030203061437010 15.0000000000000018   F   F   F
  1.3576450198781711  7.0545304592155516 15.0000000000000018   F   F   F
  4.0729350596345135  7.0545304592155516 15.0000000000000018   F   F   F
  6.7882250993908571  7.0545304592155516 15.0000000000000018   F   F   F
  9.5035151391471988  7.0545304592155516 15.0000000000000018   F   F   F
  1.3576450198781711  0.7838367176906168 17.2170250336881665   F   F   F
  4.0729350596345135  0.7838367176906168 17.2170250336881665   F   F   F
  6.7882250993908571  0.7838367176906168 17.2170250336881665   F   F   F
  9.5035151391471988  0.7838367176906168 17.2170250336881665   F   F   F
  0.0000000000000000  3.1353468707624672 17.2170250336881665   F   F   F
  2.7152900397563422  3.1353468707624672 17.2170250336881665   F   F   F
  5.4305800795126844  3.1353468707624672 17.2170250336881665   F   F   F
  8.1458701192690270  3.1353468707624672 17.2170250336881665   F   F   F
  1.3576450198781711  5.4868570238343182 17.2170250336881665   F   F   F
  4.0729350596345135  5.4868570238343182 17.2170250336881665   F   F   F
  6.7882250993908571  5.4868570238343182 17.2170250336881665   F   F   F
  9.5035151391471988  5.4868570238343182 17.2170250336881665   F   F   F
  0.0000000000000000  7.8383671769061687 17.2170250336881665   F   F   F
  2.7152900397563422  7.8383671769061687 17.2170250336881665   F   F   F
  5.4305800795126844  7.8383671769061687 17.2170250336881665   F   F   F
  8.1458701192690270  7.8383671769061687 17.2170250336881665   F   F   F
 10.8593651778204663  1.5680407133429755 19.4405077579067154   T   T   T
  2.7149540910600285  1.5686713459852759 19.4437354361546042   T   T   T
  5.4315871253225216  1.5681061740547286 19.4406038191139920   T   T   T
  8.1455016303891554  1.5673335065587346 19.4436264617442767   T   T   T
  1.3670148156515174  3.9262995532051495 19.4780601251225640   T   T   T
  4.0629036327959653  3.9262966087370654 19.4782547503435914   T   T   T
  6.7881243754659630  3.9163280321830189 19.4414819138335737   T   T   T
  9.5026861072644788  3.9163121069348867 19.4413550307082090   T   T   T
  0.0004361538683959  6.2705020875401694 19.4464774843078096   T   T   T
  2.7148129498427509  6.2597827885241708 19.4785734231709498   T   T   T
  5.4294134191349279  6.2704194305904188 19.4464802225337721   T   T   T
  8.1454931262132764  6.2703010424806278 19.4432645611171111   T   T   T
  1.3574953067233293  8.6235720085922516 19.4396786964065278   T   T   T
  4.0722748524441714  8.6233238742177996 19.4396788873655062   T   T   T
  6.7884131722795065  8.6228139714907819 19.4440235536919381   T   T   T
  9.5024756309093643  8.6227454092640148 19.4439617806349858   T   T   T
 10.8552063977788240  9.4018391872473028 21.6568467536632028   T   T   T
  2.7148433636338982  9.4058056740657694 21.6534860805871361   T   T   T
  5.4352334008328809  9.4019352184867770 21.6566388010936741   T   T   T
  8.1450687410411842  9.4042071533744309 21.6554909369762605   T   T   T
  1.3533228047415193  2.3356089579406696 21.6519589924142615   T   T   T
  4.0760395614740617  2.3356336452275901 21.6524694107041569   T   T   T
  6.7854943671514603  2.3496177092348685 21.6551572431372179   T   T   T
  9.5049732453833897  2.3494755640331504 21.6552355623306312   T   T   T
 10.8378056146231696  4.7026549036521104 21.6413109365200569   T   T   T
  2.7149226059817084  4.7131857397626433 21.7264512614808893   T   T   T
  5.4527851561835003  4.7028359135343827 21.6422419522427774   T   T   T
  8.1450760331472498  4.7045895892016310 21.6590023164518897   T   T   T
  1.3490564646612784  7.0656240339694021 21.6455607566307791   T   T   T
  4.0802540756401537  7.0655627943595656 21.6460719850984376   T   T   T
  6.7856689031493067  7.0528388847514263 21.6590637499034031   T   T   T
  9.5048674444494949  7.0529533124962906 21.6589505636736028   T   T   T
  1.5223202461581673  5.1325171642133132 24.7823088883119809   T   T   T
  3.9088679523904934  5.1003192635493164 24.7961466141749582   T   T   T
  2.7136599690882184  4.6676822826987623 24.1000265618031086   T   T   T
  1.5330750973571388  4.7467863680340541 25.8113557760944303   T   T   T
  1.4848723468896152  6.2350813502624840 24.7784471239380260   T   T   T
  0.6556465474232023  4.7291273477757079 24.2375889543518532   T   T   T
  3.9712457327882196  6.2014128354658808 24.8003830447898359   T   T   T
  4.7726830374029339  4.6812825739906883 24.2599388933822304   T   T   T
  3.8756773462290828  4.7072377742242981 25.8219442491515032   T   T   T
