CH3OCH3_Ag110
 1.0000000000000000
    12.2699999999999996    0.0000000000000000    0.0000000000000000
     0.0000000000000000    5.7841334701059592    0.0000000000000000
     0.0000000000000000    0.0000000000000000   34.3381001025794674
 Ag  C   O   H  
  24   2   1   6
Selective dynamics
Cartesian
  2.0449999999999999  1.4460333675264898 15.0000000000000053   F   F   F
  6.1349999999999998  1.4460333675264898 15.0000000000000053   F   F   F
 10.2249999999999979  1.4460333675264898 15.0000000000000053   F   F   F
  2.0449999999999999  4.3381001025794692 15.0000000000000053   F   F   F
  6.1349999999999998  4.3381001025794692 15.0000000000000053   F   F   F
 10.2249999999999979  4.3381001025794692 15.0000000000000053   F   F   F
  0.0000000000000000  0.0000000000000000 16.4460333675264891   F   F   F
  4.0899999999999999  0.0000000000000000 16.4460333675264891   F   F   F
  8.1799999999999997  0.0000000000000000 16.4460333675264891   F   F   F
  0.0000000000000000  2.8920667350529796 16.4460333675264891   F   F   F
  4.0899999999999999  2.8920667350529796 16.4460333675264891   F   F   F
  8.1799999999999997  2.8920667350529796 16.4460333675264891   F   F   F
  2.0482108946117270  1.4496343923340902 17.9869426161082195   T   T   T
  6.1332727602819581  1.4492342300135015 17.9850133768054867   T   T   T
 10.2252768291995313  1.4460173325325631 17.9851223016342523   T   T   T
  2.0466853358814343  4.3349034587738347 17.9847640852160211   T   T   T
  6.1326984284272434  4.3351126611957831 17.9848443061109542   T   T   T
 10.2252378642961776  4.3381918499824010 17.9851139495769274   T   T   T
 12.2698056833834350  0.0005512162664213 19.3537112624616903   T   T   T
  4.0898712026320112  0.0004665455213490 19.3316446821666119   T   T   T
  8.1804262553111489  5.7835599284945571 19.3538562604548545   T   T   T
 12.2672902015153049  2.8922134449436632 19.3522876770042949   T   T   T
  4.0897637761127683  2.8934209516594538 19.3852476703968009   T   T   T
  8.1828770379871898  2.8922575349888655 19.3516469705476695   T   T   T
  5.2546928618402955  3.5253345279787140 22.7777223525226411   T   T   T
  3.0488764469298881  2.6480812677693191 22.8730478214689299   T   T   T
  4.1670976917266609  2.9621397157152165 22.0365824331055968   T   T   T
  6.0425778994057930  3.8005267584609430 22.0682949775872395   T   T   T
  4.9329117067757489  4.4225506055759540 23.3332568648063834   T   T   T
  5.6549576507753887  2.7931616941210158 23.4991002811813097   T   T   T
  2.5597560382328557  3.5619771413567944 23.2526187400864615   T   T   T
  3.3685956516064901  2.0426860064489683 23.7382231598401283   T   T   T
  2.3331914539908345  2.0719135387316641 22.2781035631649438   T   T   T
