H2O_Rh111
 1.0000000000000000
    10.7565083554097622    0.0000000000000000    0.0000000000000000
     0.0000000000000000    9.3154094918044255    0.0000000000000000
     0.0000000000000000    0.0000000000000000   36.5869892211844387
 Rh  O   H  
  64   1   2
Selective dynamics
Cartesian
  0.0000000000000000  0.0000000000000000 15.0000000000000000   F   F   F
  2.6891270888524406  0.0000000000000000 15.0000000000000000   F   F   F
  5.3782541777048811  0.0000000000000000 15.0000000000000000   F   F   F
  8.0673812665573212  0.0000000000000000 15.0000000000000000   F   F   F
  1.3445635444262203  2.3288523729511064 15.0000000000000000   F   F   F
  4.0336906332786606  2.3288523729511064 15.0000000000000000   F   F   F
  6.7228177221311016  2.3288523729511064 15.0000000000000000   F   F   F
  9.4119448109835417  2.3288523729511064 15.0000000000000000   F   F   F
  0.0000000000000000  4.6577047459022127 15.0000000000000000   F   F   F
  2.6891270888524406  4.6577047459022127 15.0000000000000000   F   F   F
  5.3782541777048811  4.6577047459022127 15.0000000000000000   F   F   F
  8.0673812665573212  4.6577047459022127 15.0000000000000000   F   F   F
  1.3445635444262203  6.9865571188533195 15.0000000000000000   F   F   F
  4.0336906332786606  6.9865571188533195 15.0000000000000000   F   F   F
  6.7228177221311016  6.9865571188533195 15.0000000000000000   F   F   F
  9.4119448109835417  6.9865571188533195 15.0000000000000000   F   F   F
  1.3445635444262203  0.7762841243170354 17.1956630737281486   F   F   F
  4.0336906332786606  0.7762841243170354 17.1956630737281486   F   F   F
  6.7228177221311016  0.7762841243170354 17.1956630737281486   F   F   F
  9.4119448109835417  0.7762841243170354 17.1956630737281486   F   F   F
  0.0000000000000000  3.1051364972681417 17.1956630737281486   F   F   F
  2.6891270888524406  3.1051364972681417 17.1956630737281486   F   F   F
  5.3782541777048811  3.1051364972681417 17.1956630737281486   F   F   F
  8.0673812665573212  3.1051364972681417 17.1956630737281486   F   F   F
  1.3445635444262203  5.4339888702192489 17.1956630737281486   F   F   F
  4.0336906332786606  5.4339888702192489 17.1956630737281486   F   F   F
  6.7228177221311016  5.4339888702192489 17.1956630737281486   F   F   F
  9.4119448109835417  5.4339888702192489 17.1956630737281486   F   F   F
  0.0000000000000000  7.7628412431703548 17.1956630737281486   F   F   F
  2.6891270888524406  7.7628412431703548 17.1956630737281486   F   F   F
  5.3782541777048811  7.7628412431703548 17.1956630737281486   F   F   F
  8.0673812665573212  7.7628412431703548 17.1956630737281486   F   F   F
  0.0005151923230655  1.5505742334802479 19.3973252421012958   T   T   T
  2.6916806085822103  1.5512130791714025 19.3999706246459276   T   T   T
  5.3851977295228473  1.5563458432820556 19.4207299313083794   T   T   T
  8.0631990710712582  1.5561705906698304 19.4203151548517745   T   T   T
  1.3443131567714854  3.8811529189494425 19.4018555816555214   T   T   T
  4.0334755795511636  3.8816067102866429 19.4017848669809929   T   T   T
  6.7219119701436076  3.8699110788488724 19.4243584337154545   T   T   T
  9.4110678808638148  3.8821581636972531 19.4026190004565358   T   T   T
  0.0007469461165533  6.2095193741681065 19.4022477980513912   T   T   T
  2.6883044563044538  6.2103843407022072 19.4013280818464935   T   T   T
  5.3802281506414600  6.2092519082656228 19.3990582770381224   T   T   T
  8.0658974182961529  6.2092777640426178 19.3991047386670097   T   T   T
  1.3444739160127630  8.5393696010699394 19.4038157008527641   T   T   T
  4.0319013678054931  8.5396412271340019 19.3954760050345421   T   T   T
  6.7221680285679675  8.5391561394119861 19.4020431442417305   T   T   T
  9.4136449506362752  8.5398874612160487 19.3971552170000052   T   T   T
 10.7551058082790689  0.0004184466026312 21.5910700630764403   T   T   T
  2.6910821958029696  0.0000174546999737 21.5908530468337148   T   T   T
  5.3642592765900945  9.2979079296141300 21.5798001641724433   T   T   T
  8.0783771077123401  9.3005518519497876 21.5727589940175939   T   T   T
  1.3408557361941540  2.3297921780541140 21.5893338622894291   T   T   T
  4.0168669458445736  2.3270769885286349 21.5836419199415488   T   T   T
  6.7199001828206848  2.3315718798168517 21.6238740970785450   T   T   T
  9.4326964542519001  2.3266595640391388 21.5807201894583294   T   T   T
 10.7542911854792163  4.6567326637985014 21.5924848341051074   T   T   T
  2.6911148000367007  4.6575744598299700 21.5887749683390027   T   T   T
  5.3708833820854016  4.6717763767835256 21.5815182842605928   T   T   T
  8.0744799405508552  4.6726015726138952 21.5843328124816054   T   T   T
  1.3445101390933973  6.9863729780767532 21.5893006247848760   T   T   T
  4.0297080601641744  6.9892831426785822 21.5905058169919819   T   T   T
  6.7223534636871189  6.9879765235564655 21.5920044105589071   T   T   T
  9.4150142955931546  6.9881288672649511 21.5907507231915048   T   T   T
  6.7957340439036855  2.1799044098798781 23.8507911183764634   T   T   T
  7.7675323724039886  2.2606766113243180 23.9824146670755631   T   T   T
  6.5836560121149299  1.2233320563773251 23.9481989275262883   T   T   T
