CO_Rh100
 1.0000000000000000
     8.0673812665573212    0.0000000000000000    0.0000000000000000
     0.0000000000000000    8.0673812665573212    0.0000000000000000
     0.0000000000000000    0.0000000000000000   35.7044999999999959
 Rh  O   C  
  36   1   1
Selective dynamics
Cartesian
  1.3445635444262201  1.3445635444262201 14.9999999999999964   F   F   F
  4.0336906332786597  1.3445635444262201 14.9999999999999964   F   F   F
  6.7228177221311043  1.3445635444262201 14.9999999999999964   F   F   F
  1.3445635444262201  4.0336906332786597 14.9999999999999964   F   F   F
  4.0336906332786597  4.0336906332786597 14.9999999999999964   F   F   F
  6.7228177221311043  4.0336906332786597 14.9999999999999964   F   F   F
  1.3445635444262201  6.7228177221311043 14.9999999999999964   F   F   F
  4.0336906332786597  6.7228177221311043 14.9999999999999964   F   F   F
  6.7228177221311043  6.7228177221311043 14.9999999999999964   F   F   F
  0.0000000000000000  0.0000000000000000 16.9014999999999986   F   F   F
  2.6891270888524401  0.0000000000000000 16.9014999999999986   F   F   F
  5.3782541777048802  0.0000000000000000 16.9014999999999986   F   F   F
  0.0000000000000000  2.6891270888524401 16.9014999999999986   F   F   F
  2.6891270888524401  2.6891270888524401 16.9014999999999986   F   F   F
  5.3782541777048802  2.6891270888524401 16.9014999999999986   F   F   F
  0.0000000000000000  5.3782541777048802 16.9014999999999986   F   F   F
  2.6891270888524401  5.3782541777048802 16.9014999999999986   F   F   F
  5.3782541777048802  5.3782541777048802 16.9014999999999986   F   F   F
  1.3492492642737239  1.3422608536879639 18.8327395643054452   T   T   T
  4.0351973207764535  1.3447496265804708 18.8298980724918650   T   T   T
  6.7189332294766579  1.3416899670801878 18.8402013848859511   T   T   T
  1.3384064087523804  4.0290876092508405 18.8499644555844839   T   T   T
  4.0338041682515229  4.0369189956784108 18.8405534003801627   T   T   T
  6.7262844531431716  4.0259587877302927 18.8518772803367085   T   T   T
  1.3388968690446408  6.7172262380421515 18.8446188323377868   T   T   T
  4.0328642290495589  6.7179081457519088 18.8394117273335837   T   T   T
  6.7240826406876160  6.7191927713116781 18.8459030003710630   T   T   T
  0.0050978245406803  0.0184208408814427 20.7412179953147700   T   T   T
  2.6959647031238951  0.0004455330723044 20.6760846813499484   T   T   T
  5.3644700747795335  8.0664337140596114 20.6843831591037066   T   T   T
  0.0063102033263764  2.6499378042340616 20.7570744770217601   T   T   T
  2.7005563321624337  2.6845291440868961 20.6803269863273762   T   T   T
  5.3632774119369753  2.6847360465804764 20.6891139168537421   T   T   T
  8.0643840936680231  5.3701479855938130 20.6998973819135799   T   T   T
  2.6791029395500456  5.3769948616783285 20.6956231819187764   T   T   T
  5.3907655955205787  5.3766761619544248 20.7002852095634928   T   T   T
  0.3402697894025309  1.2967723986825963 23.4184763569764449   T   T   T
  0.2049538326232221  1.3237033228406891 22.2382826636720985   T   T   T
