CO2_Rh111
 1.0000000000000000
    10.7565083554097622    0.0000000000000000    0.0000000000000000
     0.0000000000000000    9.3154094918044255    0.0000000000000000
     0.0000000000000000    0.0000000000000000   36.5869892211844387
 Rh  C   O  
  64   1   2
Selective dynamics
Cartesian
  0.0000000000000000  0.0000000000000000 15.0000000000000000   F   F   F
  2.6891270888524406  0.0000000000000000 15.0000000000000000   F   F   F
  5.3782541777048811  0.0000000000000000 15.0000000000000000   F   F   F
  8.0673812665573212  0.0000000000000000 15.0000000000000000   F   F   F
  1.3445635444262203  2.3288523729511064 15.0000000000000000   F   F   F
  4.0336906332786606  2.3288523729511064 15.0000000000000000   F   F   F
  6.7228177221311016  2.3288523729511064 15.0000000000000000   F   F   F
  9.4119448109835417  2.3288523729511064 15.0000000000000000   F   F   F
  0.0000000000000000  4.6577047459022127 15.0000000000000000   F   F   F
  2.6891270888524406  4.6577047459022127 15.0000000000000000   F   F   F
  5.3782541777048811  4.6577047459022127 15.0000000000000000   F   F   F
  8.0673812665573212  4.6577047459022127 15.0000000000000000   F   F   F
  1.3445635444262203  6.9865571188533195 15.0000000000000000   F   F   F
  4.0336906332786606  6.9865571188533195 15.0000000000000000   F   F   F
  6.7228177221311016  6.9865571188533195 15.0000000000000000   F   F   F
  9.4119448109835417  6.9865571188533195 15.0000000000000000   F   F   F
  1.3445635444262203  0.7762841243170354 17.1956630737281486   F   F   F
  4.0336906332786606  0.7762841243170354 17.1956630737281486   F   F   F
  6.7228177221311016  0.7762841243170354 17.1956630737281486   F   F   F
  9.4119448109835417  0.7762841243170354 17.1956630737281486   F   F   F
  0.0000000000000000  3.1051364972681417 17.1956630737281486   F   F   F
  2.6891270888524406  3.1051364972681417 17.1956630737281486   F   F   F
  5.3782541777048811  3.1051364972681417 17.1956630737281486   F   F   F
  8.0673812665573212  3.1051364972681417 17.1956630737281486   F   F   F
  1.3445635444262203  5.4339888702192489 17.1956630737281486   F   F   F
  4.0336906332786606  5.4339888702192489 17.1956630737281486   F   F   F
  6.7228177221311016  5.4339888702192489 17.1956630737281486   F   F   F
  9.4119448109835417  5.4339888702192489 17.1956630737281486   F   F   F
  0.0000000000000000  7.7628412431703548 17.1956630737281486   F   F   F
  2.6891270888524406  7.7628412431703548 17.1956630737281486   F   F   F
  5.3782541777048811  7.7628412431703548 17.1956630737281486   F   F   F
  8.0673812665573212  7.7628412431703548 17.1956630737281486   F   F   F
  0.0000228809209783  1.5526482141517202 19.4004342189333521   T   T   T
  2.6900099012817864  1.5536728558501345 19.4031213252695878   T   T   T
  5.3774146633036954  1.5536453861372785 19.4029957038164369   T   T   T
  8.0673947144466744  1.5526377307894870 19.4004493116469234   T   T   T
  1.3448804471133848  3.8812547003635447 19.4036926301161579   T   T   T
  4.0336711022248686  3.8804348229751100 19.4066486677324264   T   T   T
  6.7224995749966654  3.8812022634850214 19.4037263193143943   T   T   T
  9.4119440287431786  3.8814053338923094 19.4005859280476294   T   T   T
 10.7563653502462557  6.2103452203946663 19.4009912654561703   T   T   T
  2.6899490378436490  6.2110279250903666 19.4034499118635111   T   T   T
  5.3774149905408963  6.2110378689831292 19.4035150790694217   T   T   T
  8.0675248884675455  6.2103405379799943 19.4009710833630393   T   T   T
  1.3445325518684412  8.5390782942302152 19.4006833666691456   T   T   T
  4.0337043379425213  8.5387853190852621 19.4010015528580766   T   T   T
  6.7228626233886013  8.5390680645019454 19.4006924279103785   T   T   T
  9.4119424276487944  8.5389183372322996 19.4009257206052581   T   T   T
  0.0004854220574594  0.0006725656037108 21.5871934388173869   T   T   T
  2.6892121815775809  9.3144202279002712 21.5864480262905758   T   T   T
  5.3781524504347793  9.3144422446694382 21.5864522257616649   T   T   T
  8.0668841223855043  0.0006822701131363 21.5871969551528977   T   T   T
  1.3428299159778183  2.3292486089980566 21.5853056548080176   T   T   T
  4.0337731759089701  2.3306580899698197 21.5858416319693838   T   T   T
  6.7243999543343085  2.3293263390854446 21.5853110503835133   T   T   T
  9.4119623610622583  2.3291723253819629 21.5865498369238900   T   T   T
  0.0018769331116637  4.6572256166131831 21.5876881711652402   T   T   T
  2.6901082775597089  4.6588701272449908 21.5817690437353953   T   T   T
  5.3773254952477174  4.6588718460145913 21.5817308432696464   T   T   T
  8.0654610845197574  4.6572365693973703 21.5877022749781489   T   T   T
  1.3445301163093044  6.9847371857428877 21.5862700422759275   T   T   T
  4.0336559149616757  6.9839020658152089 21.5863976318878095   T   T   T
  6.7228377070279199  6.9847381355770732 21.5863184810904407   T   T   T
  9.4119479501976695  6.9863487628411614 21.5865494352325591   T   T   T
  4.0290356713835935  4.0486446696104004 24.7535912145008581   T   T   T
  4.0073855005085806  5.2078127132659047 24.9532366695122043   T   T   T
  4.0505132588312840  2.8771741664029808 24.6175528128991878   T   T   T
