CH3OH_Au111
 1.0000000000000000
     8.6549870017233435    0.0000000000000000    0.0000000000000000
     4.3274935008616717    7.4954386129165247    0.0000000000000000
     0.0000000000000000    0.0000000000000000   37.0667672948810178
 Au  C   O   H  
  36   1   1   4
Selective dynamics
Cartesian
  0.0000000000000000  0.0000000000000000 15.0000000000000000   F   F   F
  2.8849956672411143  0.0000000000000000 15.0000000000000000   F   F   F
  5.7699913344822287  0.0000000000000000 15.0000000000000000   F   F   F
  1.4424978336205572  2.4984795376388416 15.0000000000000000   F   F   F
  4.3274935008616717  2.4984795376388416 15.0000000000000000   F   F   F
  7.2124891681027856  2.4984795376388416 15.0000000000000000   F   F   F
  2.8849956672411143  4.9969590752776831 15.0000000000000000   F   F   F
  5.7699913344822287  4.9969590752776831 15.0000000000000000   F   F   F
  8.6549870017233435  4.9969590752776831 15.0000000000000000   F   F   F
  1.4424978336205572  0.8328265125462805 17.3555890982936738   F   F   F
  4.3274935008616717  0.8328265125462805 17.3555890982936738   F   F   F
  7.2124891681027865  0.8328265125462805 17.3555890982936738   F   F   F
  2.8849956672411143  3.3313060501851219 17.3555890982936738   F   F   F
  5.7699913344822287  3.3313060501851219 17.3555890982936738   F   F   F
  8.6549870017233435  3.3313060501851219 17.3555890982936738   F   F   F
  4.3274935008616717  5.8297855878239639 17.3555890982936738   F   F   F
  7.2124891681027856  5.8297855878239639 17.3555890982936738   F   F   F
 10.0974848353439004  5.8297855878239639 17.3555890982936738   F   F   F
  8.6550036695374679  1.6655584407286257 19.8067370012194885   T   T   T
  2.8849161553127929  1.6657108146900084 19.8075617885227899   T   T   T
  5.7702738400118454  1.6654270909882554 19.8071984156422261   T   T   T
 10.0974822726017806  4.1642985927822513 19.8070803225867529   T   T   T
  4.3270722676554989  4.1640960779739737 19.8065728012808329   T   T   T
  7.2128135247834173  4.1642156131441306 19.8076919551341319   T   T   T
 11.5400136249697525  6.6624868374244874 19.8061412373325680   T   T   T
  5.7697830621112232  6.6629596977243963 19.8064425462502953   T   T   T
  8.6552111834425443  6.6625246873181370 19.8069061773132056   T   T   T
  8.6550059057709774  0.0006232356594256 22.3174821524391156   T   T   T
  7.2129441696451790  7.4947934004146521 22.3159787054660654   T   T   T
 10.0967841969503720  7.4948327254001468 22.3174309362769527   T   T   T
 10.0971579779573144  2.4995073470714599 22.3148668817276352   T   T   T
  4.3274184195499723  2.4984705408300609 22.3163418673558631   T   T   T
  7.2133051895305185  2.4976496490632023 22.3130086515446884   T   T   T
 11.5388455795559910  4.9963541182235938 22.3175882539106354   T   T   T
  5.7693676056693093  4.9978341494393010 22.3136475850993818   T   T   T
  8.6560823606274013  4.9970727568697582 22.3110309999480130   T   T   T
  8.2616360373363307  4.4461926428735969 26.3028777585063480   T   T   T
  6.9224880096919534  4.3724437931329811 25.7926568310838995   T   T   T
  8.1709855566822132  4.5204879334512116 27.3912806470222492   T   T   T
  6.9658007857641548  4.3756882018024061 24.8179073745994430   T   T   T
  8.8502516252877115  3.5446990125872020 26.0652206997003333   T   T   T
  8.8042667765510743  5.3311443316779155 25.9318481628430888   T   T   T
