C2H6_Rh111
 1.0000000000000000
    10.7565083554097622    0.0000000000000000    0.0000000000000000
     0.0000000000000000    9.3154094918044255    0.0000000000000000
     0.0000000000000000    0.0000000000000000   36.5869892211844387
 Rh  C   H  
  64   2   6
Selective dynamics
Cartesian
  0.0000000000000000  0.0000000000000000 15.0000000000000000   F   F   F
  2.6891270888524406  0.0000000000000000 15.0000000000000000   F   F   F
  5.3782541777048811  0.0000000000000000 15.0000000000000000   F   F   F
  8.0673812665573212  0.0000000000000000 15.0000000000000000   F   F   F
  1.3445635444262203  2.3288523729511064 15.0000000000000000   F   F   F
  4.0336906332786606  2.3288523729511064 15.0000000000000000   F   F   F
  6.7228177221311016  2.3288523729511064 15.0000000000000000   F   F   F
  9.4119448109835417  2.3288523729511064 15.0000000000000000   F   F   F
  0.0000000000000000  4.6577047459022127 15.0000000000000000   F   F   F
  2.6891270888524406  4.6577047459022127 15.0000000000000000   F   F   F
  5.3782541777048811  4.6577047459022127 15.0000000000000000   F   F   F
  8.0673812665573212  4.6577047459022127 15.0000000000000000   F   F   F
  1.3445635444262203  6.9865571188533195 15.0000000000000000   F   F   F
  4.0336906332786606  6.9865571188533195 15.0000000000000000   F   F   F
  6.7228177221311016  6.9865571188533195 15.0000000000000000   F   F   F
  9.4119448109835417  6.9865571188533195 15.0000000000000000   F   F   F
  1.3445635444262203  0.7762841243170354 17.1956630737281486   F   F   F
  4.0336906332786606  0.7762841243170354 17.1956630737281486   F   F   F
  6.7228177221311016  0.7762841243170354 17.1956630737281486   F   F   F
  9.4119448109835417  0.7762841243170354 17.1956630737281486   F   F   F
  0.0000000000000000  3.1051364972681417 17.1956630737281486   F   F   F
  2.6891270888524406  3.1051364972681417 17.1956630737281486   F   F   F
  5.3782541777048811  3.1051364972681417 17.1956630737281486   F   F   F
  8.0673812665573212  3.1051364972681417 17.1956630737281486   F   F   F
  1.3445635444262203  5.4339888702192489 17.1956630737281486   F   F   F
  4.0336906332786606  5.4339888702192489 17.1956630737281486   F   F   F
  6.7228177221311016  5.4339888702192489 17.1956630737281486   F   F   F
  9.4119448109835417  5.4339888702192489 17.1956630737281486   F   F   F
  0.0000000000000000  7.7628412431703548 17.1956630737281486   F   F   F
  2.6891270888524406  7.7628412431703548 17.1956630737281486   F   F   F
  5.3782541777048811  7.7628412431703548 17.1956630737281486   F   F   F
  8.0673812665573212  7.7628412431703548 17.1956630737281486   F   F   F
  0.0020722071523360  1.5549695637898830 19.4090740779298976   T   T   T
  2.6892286673107026  1.5561143961523447 19.4116553695448353   T   T   T
  5.3757700225393794  1.5534460584196450 19.4072196366409990   T   T   T
  8.0674566698617589  1.5529942651278148 19.4028653991077604   T   T   T
  1.3438671858636686  3.8774584216285137 19.4093169479806029   T   T   T
  4.0339771026470075  3.8790719647414638 19.4078501171296800   T   T   T
  6.7224505583217224  3.8823790488022478 19.4027267107200991   T   T   T
  9.4107233588796699  3.8815405959352205 19.4021245666843711   T   T   T
  0.0000511072339907  6.2099808481651522 19.4015614530923948   T   T   T
  2.6886866119910815  6.2083027043678856 19.4019540323754178   T   T   T
  5.3780656990964175  6.2103361301044320 19.4018127129096527   T   T   T
  8.0669770877958875  6.2105605629313452 19.4016169199306709   T   T   T
  1.3444147750550497  8.5384676382235778 19.4017981613650399   T   T   T
  4.0329411345323747  8.5393423919293028 19.4047033372822391   T   T   T
  6.7232785108636808  8.5398723995019559 19.4020606591521592   T   T   T
  9.4128038115786730  8.5396144353761159 19.4027547622426511   T   T   T
  0.0011873160443507  9.3146202268487333 21.5864797052176094   T   T   T
  2.6866033245466414  9.3125768651392313 21.5777955851750960   T   T   T
  5.3780367544686207  9.3146518637491305 21.5857034792148319   T   T   T
  8.0682140103781226  0.0004402027575276 21.5896198471946903   T   T   T
  1.3445408942692403  2.3254421311752069 21.5855034305620066   T   T   T
  4.0352682892195704  2.3286919281227187 21.5832912712160869   T   T   T
  6.7180807149236665  2.3279949814936187 21.5885884635763468   T   T   T
  9.4127416279072165  2.3291806427661266 21.5860790024582627   T   T   T
  0.0012096565506462  4.6588802051381180 21.5847048673534800   T   T   T
  2.6909027448057543  4.6618402215118611 21.5819367334345174   T   T   T
  5.3759925223847960  4.6573466114912625 21.5891826516139211   T   T   T
  8.0684565598345674  4.6558911403678440 21.5896837170127895   T   T   T
  1.3441878815612791  6.9899000700861809 21.5894636719285842   T   T   T
  4.0355786912604499  6.9859670065680035 21.5889811571796422   T   T   T
  6.7245555477823729  6.9863454653385322 21.5885120963533517   T   T   T
  9.4088303811574772  6.9862964025804990 21.5882825739895452   T   T   T
  1.7784554064640634  2.4408642278051569 24.7246962114873980   T   T   T
  3.2515892772429495  2.0665873034045501 24.7954385968833613   T   T   T
  1.1255810547125646  1.5589957925575593 24.6517695678766060   T   T   T
  1.4627906063278404  3.0250199027320552 25.6015401107337119   T   T   T
  1.5656448292430987  3.0951503701897938 23.8570510553739048   T   T   T
  3.5257335018276783  1.3374672534436178 24.0141611575689176   T   T   T
  3.4945400956512831  1.5843498336999762 25.7535836253631594   T   T   T
  3.9059908074233549  2.9442450752900511 24.6847092625235369   T   T   T
