HCOOH_Cu110
 1.0000000000000000
    10.8300000000000001    0.0000000000000000    0.0000000000000000
     0.0000000000000000    5.1053109601668734    0.0000000000000000
     0.0000000000000000    0.0000000000000000   33.8289832201251528
 Cu  O   C   H  
  24   2   1   2
Selective dynamics
Cartesian
  1.8049999999999999  1.2763277400417183 14.9999999999999982   F   F   F
  5.4149999999999991  1.2763277400417183 14.9999999999999982   F   F   F
  9.0249999999999986  1.2763277400417183 14.9999999999999982   F   F   F
  1.8049999999999999  3.8289832201251550 14.9999999999999982   F   F   F
  5.4149999999999991  3.8289832201251550 14.9999999999999982   F   F   F
  9.0249999999999986  3.8289832201251550 14.9999999999999982   F   F   F
  0.0000000000000000  0.0000000000000000 16.2763277400417152   F   F   F
  3.6099999999999999  0.0000000000000000 16.2763277400417152   F   F   F
  7.2199999999999998  0.0000000000000000 16.2763277400417152   F   F   F
  0.0000000000000000  2.5526554800834367 16.2763277400417152   F   F   F
  3.6099999999999999  2.5526554800834367 16.2763277400417152   F   F   F
  7.2199999999999998  2.5526554800834367 16.2763277400417152   F   F   F
  1.8144702365924688  1.2715597713774709 17.6231726243792153   T   T   T
  5.4093337180874803  1.2701137148451898 17.5949234246120234   T   T   T
  9.0204453419638622  1.2819287760732159 17.6144810513537422   T   T   T
  1.8151167026155286  3.8381996051904617 17.6089177219393136   T   T   T
  5.4110805307793068  3.8373968648018200 17.5905447503471457   T   T   T
  9.0190039416194736  3.8256722014523508 17.6142744748605367   T   T   T
 10.8199685772577805  5.1028673568482370 18.7628503025850790   T   T   T
  3.6168321105111239  0.0055193938947092 18.8801020489566227   T   T   T
  7.2166230628198687  0.0007805506532103 18.7700569220228246   T   T   T
  0.0129731592121885  2.5576575821532637 18.7689462486442125   T   T   T
  3.6242900019496940  2.5562963056351391 18.7317786191374402   T   T   T
  7.1956102837034157  2.5529632617754396 18.7702559612915216   T   T   T
  1.7897219254473626  1.2414226093613454 21.4822658222468590   T   T   T
  3.5561918506189656  5.0127838778100040 20.9204982815967675   T   T   T
  2.7957316025757812  0.4275195090201188 21.7516853944439212   T   T   T
  1.7089019615431345  1.3441724029947124 20.4880970089404073   T   T   T
  2.9045741341300926  0.2355447386362892 22.8206829082473881   T   T   T
