CH3 molecule | 4 atoms | 20x20x20 A box
   1.00000000000000
   20.0000000000000000    0.0000000000000000    0.0000000000000000
    0.0000000000000000   20.0000000000000000    0.0000000000000000
    0.0000000000000000    0.0000000000000000   20.0000000000000000
  C  H
  1  3
Cartesian
    9.9999999999999964    9.7303974999999969   10.0000000000000000
    9.9999999999999964   10.8088074999999986   10.0000000000000000
   10.9339300000000001    9.1911925000000014   10.0000000000000000
    9.0660699999999999    9.1911925000000014   10.0000000000000000
