CH3_Au111
 1.0000000000000000
     8.6549870017233435    0.0000000000000000    0.0000000000000000
     4.3274935008616717    7.4954386129165247    0.0000000000000000
     0.0000000000000000    0.0000000000000000   37.0667672948810178
 Au  C   H  
  36   1   3
Selective dynamics
Cartesian
  0.0000000000000000  0.0000000000000000 15.0000000000000000   F   F   F
  2.8849956672411143  0.0000000000000000 15.0000000000000000   F   F   F
  5.7699913344822287  0.0000000000000000 15.0000000000000000   F   F   F
  1.4424978336205572  2.4984795376388416 15.0000000000000000   F   F   F
  4.3274935008616717  2.4984795376388416 15.0000000000000000   F   F   F
  7.2124891681027856  2.4984795376388416 15.0000000000000000   F   F   F
  2.8849956672411143  4.9969590752776831 15.0000000000000000   F   F   F
  5.7699913344822287  4.9969590752776831 15.0000000000000000   F   F   F
  8.6549870017233435  4.9969590752776831 15.0000000000000000   F   F   F
  1.4424978336205572  0.8328265125462805 17.3555890982936738   F   F   F
  4.3274935008616717  0.8328265125462805 17.3555890982936738   F   F   F
  7.2124891681027865  0.8328265125462805 17.3555890982936738   F   F   F
  2.8849956672411143  3.3313060501851219 17.3555890982936738   F   F   F
  5.7699913344822287  3.3313060501851219 17.3555890982936738   F   F   F
  8.6549870017233435  3.3313060501851219 17.3555890982936738   F   F   F
  4.3274935008616717  5.8297855878239639 17.3555890982936738   F   F   F
  7.2124891681027856  5.8297855878239639 17.3555890982936738   F   F   F
 10.0974848353439004  5.8297855878239639 17.3555890982936738   F   F   F
  8.6689136796694779  1.6714969464022433 19.8277700344858303   T   T   T
  2.8750801420264005  1.6707061161571075 19.8245018689359185   T   T   T
  5.7720079703505789  1.6583171043798195 19.7846953803246457   T   T   T
 10.0991514360503825  4.1483091313102767 19.8231923174123530   T   T   T
  4.3287151250167950  4.1626088069383815 19.7928572634250060   T   T   T
  7.2141940457460541  4.1620948514360796 19.7947005004397560   T   T   T
 11.5368090274124810  6.6640040467574497 19.7855016800570880   T   T   T
  5.7710828501809610  6.6604796060318590 19.7918118126295859   T   T   T
  8.6620975066915076  6.6624015493798296 19.7844648209578153   T   T   T
  4.3233638426737757  7.4735249571789950 22.2744555818482617   T   T   T
  7.2265451507924334  7.4696264615389349 22.2652494083334105   T   T   T
 10.1015957675602159  7.4891819110498581 22.3052580825964135   T   T   T
  1.4483810538182262  2.4992508524592227 22.4128487843353987   T   T   T
  4.3546739769795879  2.4935403411401227 22.2720698884393933   T   T   T
  7.1921307393392491  2.4936779155298328 22.2746424744878553   T   T   T
  2.9036448001903059  5.0161213233640334 22.2725490917486724   T   T   T
  5.7734612736537070  4.9909546685209714 22.3174755605161685   T   T   T
  8.6452954828864179  5.0121691858667754 22.2774683804265479   T   T   T
  1.4793378022514980  2.4750099680273996 24.5265628944763598   T   T   T
  2.0134457904247514  1.5648170697387911 24.8147214647070840   T   T   T
  9.0861886028480594  2.4670262001810426 24.8391127889250996   T   T   T
  2.0051798564961603  3.3857504384918076 24.8273479778383042   T   T   T
