C2H4_Pd111
 1.0000000000000000
     8.2519361364470107    0.0000000000000000    0.0000000000000000
     4.1259680682235054    7.1463863245699208    0.0000000000000000
     0.0000000000000000    0.0000000000000000   36.7376776414429358
 Pd  C   H  
  36   2   4
Selective dynamics
Cartesian
  0.0000000000000000  0.0000000000000000 15.0000000000000000   F   F   F
  2.7506453788156700  0.0000000000000000 15.0000000000000000   F   F   F
  5.5012907576313399  0.0000000000000000 15.0000000000000000   F   F   F
  1.3753226894078350  2.3821287748566400 15.0000000000000000   F   F   F
  4.1259680682235054  2.3821287748566400 15.0000000000000000   F   F   F
  6.8766134470391753  2.3821287748566400 15.0000000000000000   F   F   F
  2.7506453788156700  4.7642575497132800 15.0000000000000000   F   F   F
  5.5012907576313399  4.7642575497132800 15.0000000000000000   F   F   F
  8.2519361364470107  4.7642575497132800 15.0000000000000000   F   F   F
  1.3753226894078350  0.7940429249522137 17.2458925471476441   F   F   F
  4.1259680682235045  0.7940429249522137 17.2458925471476441   F   F   F
  6.8766134470391744  0.7940429249522137 17.2458925471476441   F   F   F
  2.7506453788156700  3.1761716998088549 17.2458925471476441   F   F   F
  5.5012907576313399  3.1761716998088549 17.2458925471476441   F   F   F
  8.2519361364470090  3.1761716998088549 17.2458925471476441   F   F   F
  4.1259680682235054  5.5583004746654945 17.2458925471476441   F   F   F
  6.8766134470391753  5.5583004746654945 17.2458925471476441   F   F   F
  9.6272588258548453  5.5583004746654945 17.2458925471476441   F   F   F
  8.2475126969105190  1.5894760770189855 19.5245890795883774   T   T   T
  2.7453182011007682  1.5901004344547240 19.5130062971050968   T   T   T
  5.5003140220202926  1.5896233820194479 19.5157307878096979   T   T   T
  9.6235184435350316  3.9728365989060950 19.5259468443717807   T   T   T
  4.1331427466698498  3.9802811546260828 19.5496091571243902   T   T   T
  6.8560575981636855  3.9815685621351697 19.5646268585974532   T   T   T
 11.0024481202741899  6.3514140018684246 19.5211689212079804   T   T   T
  5.4955019678183792  6.3394453353120310 19.5492249890548635   T   T   T
  8.2490493676476220  6.3513961392266047 19.5165501812441171   T   T   T
  8.2503132551116725  0.0123830060504101 21.8199970969964099   T   T   T
  2.7608629142456516  0.0127639905207138 21.8053833915599604   T   T   T
  9.6265957323624871  7.1446381474583376 21.8157232339970975   T   T   T
  1.3760241854771167  2.3798166306573063 21.8293507411167020   T   T   T
  4.1188542869844502  2.3624391257667887 21.8033071646845791   T   T   T
  6.8805846190658571  2.3713434681290178 21.8224536722939000   T   T   T
 10.9907174216540220  4.7574024321826407 21.8232717372536591   T   T   T
  5.5022848162258953  4.7613389525568959 21.9806081424341428   T   T   T
  8.2612550967462912  4.7634988082198229 21.8243673114765784   T   T   T
  4.7211859001363523  5.1812097771150682 23.9623603964945744   T   T   T
  5.9595759846746077  4.4955954466062851 24.0525660049728636   T   T   T
  3.7883643192135574  4.6388602235135714 24.1539970917541460   T   T   T
  4.6830412457885959  6.2576135713875551 24.1632518475635543   T   T   T
  5.9679652264007554  3.4292482642040363 24.2923858623451707   T   T   T
  6.8654207576790549  5.0525526139577446 24.3047718432961624   T   T   T
