C2H6_Cu111
 1.0000000000000000
    10.2106219203337467    0.0000000000000000    0.0000000000000000
     0.0000000000000000    8.8426579714472719    0.0000000000000000
     0.0000000000000000    0.0000000000000000   36.2527034153236514
 Cu  C   H  
  64   2   6
Selective dynamics
Cartesian
  0.0000000000000000  0.0000000000000000 15.0000000000000000   F   F   F
  2.5526554800834367  0.0000000000000000 15.0000000000000000   F   F   F
  5.1053109601668734  0.0000000000000000 15.0000000000000000   F   F   F
  7.6579664402503100  0.0000000000000000 15.0000000000000000   F   F   F
  1.2763277400417183  2.2106644928618180 15.0000000000000000   F   F   F
  3.8289832201251550  2.2106644928618180 15.0000000000000000   F   F   F
  6.3816387002085921  2.2106644928618180 15.0000000000000000   F   F   F
  8.9342941802920279  2.2106644928618180 15.0000000000000000   F   F   F
  0.0000000000000000  4.4213289857236360 15.0000000000000000   F   F   F
  2.5526554800834367  4.4213289857236360 15.0000000000000000   F   F   F
  5.1053109601668734  4.4213289857236360 15.0000000000000000   F   F   F
  7.6579664402503100  4.4213289857236360 15.0000000000000000   F   F   F
  1.2763277400417183  6.6319934785854526 15.0000000000000000   F   F   F
  3.8289832201251550  6.6319934785854526 15.0000000000000000   F   F   F
  6.3816387002085921  6.6319934785854526 15.0000000000000000   F   F   F
  8.9342941802920279  6.6319934785854526 15.0000000000000000   F   F   F
  1.2763277400417183  0.7368881642872727 17.0842344717745505   F   F   F
  3.8289832201251550  0.7368881642872727 17.0842344717745505   F   F   F
  6.3816387002085921  0.7368881642872727 17.0842344717745505   F   F   F
  8.9342941802920279  0.7368881642872727 17.0842344717745505   F   F   F
  0.0000000000000000  2.9475526571490906 17.0842344717745505   F   F   F
  2.5526554800834367  2.9475526571490906 17.0842344717745505   F   F   F
  5.1053109601668734  2.9475526571490906 17.0842344717745505   F   F   F
  7.6579664402503100  2.9475526571490906 17.0842344717745505   F   F   F
  1.2763277400417183  5.1582171500109091 17.0842344717745505   F   F   F
  3.8289832201251550  5.1582171500109091 17.0842344717745505   F   F   F
  6.3816387002085921  5.1582171500109091 17.0842344717745505   F   F   F
  8.9342941802920279  5.1582171500109091 17.0842344717745505   F   F   F
  0.0000000000000000  7.3688816428727266 17.0842344717745505   F   F   F
  2.5526554800834367  7.3688816428727266 17.0842344717745505   F   F   F
  5.1053109601668734  7.3688816428727266 17.0842344717745505   F   F   F
  7.6579664402503100  7.3688816428727266 17.0842344717745505   F   F   F
  0.0000421889967800  1.4737607791654939 19.1666751088534184   T   T   T
  2.5526529562068547  1.4737207922434170 19.1668346416849964   T   T   T
  5.1051815676959862  1.4736806525889359 19.1673137121691930   T   T   T
  7.6580893582056344  1.4736901257706791 19.1669023645453223   T   T   T
  1.2761630024231807  3.6845065377657287 19.1666808503041182   T   T   T
  3.8288309095766198  3.6843713971814300 19.1672782975911176   T   T   T
  6.3815307103549213  3.6843673838618565 19.1678149654373300   T   T   T
  8.9345823061128513  3.6843477926852826 19.1669017226992864   T   T   T
  0.0000624931525788  5.8951497881739678 19.1665851226649018   T   T   T
  2.5524681225136661  5.8953017457753951 19.1666856418958069   T   T   T
  5.1052868919789613  5.8951590939292036 19.1671538647322102   T   T   T
  7.6581116153764466  5.8953649153365664 19.1669515797139809   T   T   T
  1.2763722787802043  8.1057734665997341 19.1666162432041460   T   T   T
  3.8289540414143617  8.1056417661501428 19.1668922674534699   T   T   T
  6.3816619065602040  8.1056420570773273 19.1668246188677713   T   T   T
  8.9342895998575038  8.1058017343599875 19.1666480266999457   T   T   T
  0.0000798734265622  0.0001439039411595 21.2541285761296841   T   T   T
  2.5528750926713464  0.0003330435457949 21.2545977367781838   T   T   T
  5.1053192203901858  0.0002430495830495 21.2539368907959485   T   T   T
  7.6578531300913015  0.0002935835340301 21.2544710604834712   T   T   T
  1.2764038075412318  2.2106875878989047 21.2541957074093872   T   T   T
  3.8294071684850479  2.2105876091264607 21.2534042758483643   T   T   T
  6.3812054990383880  2.2110830459404007 21.2526994769362823   T   T   T
  8.9344101561069156  2.2104927787701434 21.2543050487878773   T   T   T
  0.0000876336104616  4.4211759424119368 21.2545912581052363   T   T   T
  2.5528024054285741  4.4213983051705439 21.2535315130265907   T   T   T
  5.1055103335448511  4.4209388159982401 21.2528118821315992   T   T   T
  7.6574514119242334  4.4210059689834873 21.2534458743340409   T   T   T
  1.2762706894023035  6.6319483202793563 21.2542211317306062   T   T   T
  3.8289728791861535  6.6315658008950651 21.2548606581865371   T   T   T
  6.3816224097390251  6.6319641837400063 21.2544889985369814   T   T   T
  8.9343066092508412  6.6319629456226545 21.2543919236292211   T   T   T
  6.0430635191251572  3.6516440167181954 24.9933542538498301   T   T   T
  4.9137473572347012  2.6239631846888414 25.1005328727266956   T   T   T
  5.7064823454932725  4.6612212821746937 25.2711383032826369   T   T   T
  6.8879414522853262  3.3983790131958482 25.6512827490722088   T   T   T
  6.4413217167484600  3.7135133092623436 23.9664983891089491   T   T   T
  5.2408580577321535  1.6260917403426640 24.7748381160960065   T   T   T
  4.0494378017429753  2.9075959589920641 24.4823155357390938   T   T   T
  4.5574640350777402  2.5298024167322377 26.1374615470525526   T   T   T
