CH3CH2OH_Cu111
 1.0000000000000000
    10.2106219203337467    0.0000000000000000    0.0000000000000000
     0.0000000000000000    8.8426579714472719    0.0000000000000000
     0.0000000000000000    0.0000000000000000   36.2527034153236514
 Cu  C   O   H  
  64   2   1   6
Selective dynamics
Cartesian
  0.0000000000000000  0.0000000000000000 15.0000000000000000   F   F   F
  2.5526554800834367  0.0000000000000000 15.0000000000000000   F   F   F
  5.1053109601668734  0.0000000000000000 15.0000000000000000   F   F   F
  7.6579664402503100  0.0000000000000000 15.0000000000000000   F   F   F
  1.2763277400417183  2.2106644928618180 15.0000000000000000   F   F   F
  3.8289832201251550  2.2106644928618180 15.0000000000000000   F   F   F
  6.3816387002085921  2.2106644928618180 15.0000000000000000   F   F   F
  8.9342941802920279  2.2106644928618180 15.0000000000000000   F   F   F
  0.0000000000000000  4.4213289857236360 15.0000000000000000   F   F   F
  2.5526554800834367  4.4213289857236360 15.0000000000000000   F   F   F
  5.1053109601668734  4.4213289857236360 15.0000000000000000   F   F   F
  7.6579664402503100  4.4213289857236360 15.0000000000000000   F   F   F
  1.2763277400417183  6.6319934785854526 15.0000000000000000   F   F   F
  3.8289832201251550  6.6319934785854526 15.0000000000000000   F   F   F
  6.3816387002085921  6.6319934785854526 15.0000000000000000   F   F   F
  8.9342941802920279  6.6319934785854526 15.0000000000000000   F   F   F
  1.2763277400417183  0.7368881642872727 17.0842344717745505   F   F   F
  3.8289832201251550  0.7368881642872727 17.0842344717745505   F   F   F
  6.3816387002085921  0.7368881642872727 17.0842344717745505   F   F   F
  8.9342941802920279  0.7368881642872727 17.0842344717745505   F   F   F
  0.0000000000000000  2.9475526571490906 17.0842344717745505   F   F   F
  2.5526554800834367  2.9475526571490906 17.0842344717745505   F   F   F
  5.1053109601668734  2.9475526571490906 17.0842344717745505   F   F   F
  7.6579664402503100  2.9475526571490906 17.0842344717745505   F   F   F
  1.2763277400417183  5.1582171500109091 17.0842344717745505   F   F   F
  3.8289832201251550  5.1582171500109091 17.0842344717745505   F   F   F
  6.3816387002085921  5.1582171500109091 17.0842344717745505   F   F   F
  8.9342941802920279  5.1582171500109091 17.0842344717745505   F   F   F
  0.0000000000000000  7.3688816428727266 17.0842344717745505   F   F   F
  2.5526554800834367  7.3688816428727266 17.0842344717745505   F   F   F
  5.1053109601668734  7.3688816428727266 17.0842344717745505   F   F   F
  7.6579664402503100  7.3688816428727266 17.0842344717745505   F   F   F
  0.0032264351094499  1.4706456856633008 19.1578637470510920   T   T   T
  2.5520700882885103  1.4722810271978692 19.1619448798512089   T   T   T
  5.1117802563267896  1.4773755883810562 19.1803437466305944   T   T   T
  7.6496795139834131  1.4775925452314960 19.1790888093234351   T   T   T
  1.2754978614447590  3.6841538946547798 19.1679158580650082   T   T   T
  3.8272218716935327  3.6851224930985680 19.1625548246275734   T   T   T
  6.3822888258407584  3.6779834634237987 19.1825526717446486   T   T   T
  8.9354740225690232  3.6872398413257650 19.1601303166231318   T   T   T
  0.0004205274433462  5.8951686512641990 19.1667801219282268   T   T   T
  2.5524662474020143  5.8952803578303721 19.1665982856167219   T   T   T
  5.1055194284841470  5.8965750911502903 19.1626483217733963   T   T   T
  7.6574608947561948  5.8966325898633878 19.1636604480839559   T   T   T
  1.2759895440135414  8.1045366396018519 19.1665502563233865   T   T   T
  3.8283008055691874  8.1058654542551007 19.1636364430442008   T   T   T
  6.3816524963213714  8.1051505809614888 19.1643564276307181   T   T   T
  8.9353115637294600  8.1067858547458975 19.1633563669786184   T   T   T
  0.0005645916186190  0.0002798236183077 21.2583915130811363   T   T   T
  2.5509511072588058  8.8418023757820166 21.2533828268527643   T   T   T
  5.1021846075882991  8.8358132815494024 21.2496019947483603   T   T   T
  7.6603716399375781  8.8362148990000478 21.2488115049212638   T   T   T
  1.2770197839538859  2.2095662205828215 21.2579960354834903   T   T   T
  3.8204389709331763  2.2113532083320959 21.2428739781773395   T   T   T
  6.3742144520017705  2.2107421603037007 21.3076514617850208   T   T   T
  8.9467709591964972  2.2104187969903171 21.2298034122065502   T   T   T
  0.0013697285872695  4.4210902037628612 21.2592374056760995   T   T   T
  2.5504403752163012  4.4219109729786101 21.2572715174032787   T   T   T
  5.0981380492509203  4.4285621468696750 21.2429078247999854   T   T   T
  7.6654938204667333  4.4281054214203692 21.2487412015306951   T   T   T
  1.2757470105759403  6.6321028443878598 21.2568554098975540   T   T   T
  3.8269507502649733  6.6321433822557649 21.2575353743035684   T   T   T
  6.3819631133079682  6.6299520174207913 21.2541927999234161   T   T   T
  8.9361921553344335  6.6329187942621051 21.2559116436400721   T   T   T
  4.7667845109849507  2.7056982972789370 25.2981977082173231   T   T   T
  6.2252287202063528  2.3375215212274454 25.2732791587079966   T   T   T
  6.7297749546951549  2.4309144739368520 23.9138049254471525   T   T   T
  4.1725833427247947  2.0122638444171250 24.6950699146367256   T   T   T
  4.3984906151833814  2.6640325514381398 26.3321522189197879   T   T   T
  4.6097480727196469  3.7203015749023063 24.9200121740727418   T   T   T
  6.3843887066672114  1.3159385366844425 25.6604971096727148   T   T   T
  6.8113726324036667  3.0155095716235127 25.9166085933523540   T   T   T
  7.6789152517550123  2.2039268500977571 23.9076971757784520   T   T   T
