CH3OCH3_Pd100
 1.0000000000000000
     8.2519361364470107    0.0000000000000000    0.0000000000000000
     0.0000000000000000    8.2519361364470107    0.0000000000000000
     0.0000000000000000    0.0000000000000000   35.8350000000000009
 Pd  C   O   H  
  36   2   1   6
Selective dynamics
Cartesian
  1.3753226894078350  1.3753226894078350 15.0000000000000000   F   F   F
  4.1259680682235054  1.3753226894078350 15.0000000000000000   F   F   F
  6.8766134470391780  1.3753226894078350 15.0000000000000000   F   F   F
  1.3753226894078350  4.1259680682235054 15.0000000000000000   F   F   F
  4.1259680682235054  4.1259680682235054 15.0000000000000000   F   F   F
  6.8766134470391780  4.1259680682235054 15.0000000000000000   F   F   F
  1.3753226894078350  6.8766134470391780 15.0000000000000000   F   F   F
  4.1259680682235054  6.8766134470391780 15.0000000000000000   F   F   F
  6.8766134470391780  6.8766134470391780 15.0000000000000000   F   F   F
  0.0000000000000000  0.0000000000000000 16.9450000000000003   F   F   F
  2.7506453788156700  0.0000000000000000 16.9450000000000003   F   F   F
  5.5012907576313399  0.0000000000000000 16.9450000000000003   F   F   F
  0.0000000000000000  2.7506453788156700 16.9450000000000003   F   F   F
  2.7506453788156700  2.7506453788156700 16.9450000000000003   F   F   F
  5.5012907576313399  2.7506453788156700 16.9450000000000003   F   F   F
  0.0000000000000000  5.5012907576313399 16.9450000000000003   F   F   F
  2.7506453788156700  5.5012907576313399 16.9450000000000003   F   F   F
  5.5012907576313399  5.5012907576313399 16.9450000000000003   F   F   F
  1.3881172543541844  1.3871531759535281 18.9591530144505889   T   T   T
  4.1165340596145255  1.3836029011240873 18.9496094809130753   T   T   T
  6.8768914068437796  1.3698467335140321 18.9309229417771085   T   T   T
  1.3828549951840812  4.1184741643331559 18.9474872081630892   T   T   T
  4.1188507919903721  4.1180774572735519 18.9456460044192134   T   T   T
  6.8765522245305108  4.1295207006208035 18.9346141448843177   T   T   T
  1.3713591920893287  6.8783481043616552 18.9342562337189015   T   T   T
  4.1285368645160183  6.8761882435227690 18.9360023413166836   T   T   T
  6.8751315323431594  6.8740114519467026 18.9411439998168056   T   T   T
  8.2517787688787436  8.2517485021422452 20.9249366389365647   T   T   T
  2.7515731991675296  8.2391578137682160 20.9186257322510158   T   T   T
  5.4995853392951943  0.0047872543214002 20.9221435579758612   T   T   T
  8.2387454848600576  2.7487040921028121 20.9105861084706426   T   T   T
  2.7530339654618809  2.7463791448242683 21.0045870152618690   T   T   T
  5.5157138815408668  2.7503386697127850 20.9089989128069966   T   T   T
  0.0064681959264275  5.4980641438357019 20.9274989789859553   T   T   T
  2.7517607291597548  5.5088498133403814 20.9082508720968292   T   T   T
  5.4997617218584676  5.4972670751952393 20.9327475230960971   T   T   T
  1.5762760261543078  3.2473942669040525 23.8396562294911440   T   T   T
  3.4954570516424823  1.8087486778037771 23.8736244149202541   T   T   T
  2.8533046382816889  2.9375649910128656 23.2612551093456048   T   T   T
  1.7074465969122774  3.5199558935436395 24.8977521165122866   T   T   T
  1.1630911623978974  4.1073381869731476 23.2980921975925952   T   T   T
  0.8851729935358204  2.3884733160075955 23.7704664820146263   T   T   T
  4.4605738389447387  1.6651654998033656 23.3734080278448246   T   T   T
  2.8822117859336727  0.8965175209811844 23.7695153790109686   T   T   T
  3.6645209353896449  2.0119280244187880 24.9423824214144751   T   T   T
