NH3_Pd100
 1.0000000000000000
     8.2519361364470107    0.0000000000000000    0.0000000000000000
     0.0000000000000000    8.2519361364470107    0.0000000000000000
     0.0000000000000000    0.0000000000000000   35.8350000000000009
 Pd  N   H  
  36   1   3
Selective dynamics
Cartesian
  1.3753226894078350  1.3753226894078350 15.0000000000000000   F   F   F
  4.1259680682235054  1.3753226894078350 15.0000000000000000   F   F   F
  6.8766134470391780  1.3753226894078350 15.0000000000000000   F   F   F
  1.3753226894078350  4.1259680682235054 15.0000000000000000   F   F   F
  4.1259680682235054  4.1259680682235054 15.0000000000000000   F   F   F
  6.8766134470391780  4.1259680682235054 15.0000000000000000   F   F   F
  1.3753226894078350  6.8766134470391780 15.0000000000000000   F   F   F
  4.1259680682235054  6.8766134470391780 15.0000000000000000   F   F   F
  6.8766134470391780  6.8766134470391780 15.0000000000000000   F   F   F
  0.0000000000000000  0.0000000000000000 16.9450000000000003   F   F   F
  2.7506453788156700  0.0000000000000000 16.9450000000000003   F   F   F
  5.5012907576313399  0.0000000000000000 16.9450000000000003   F   F   F
  0.0000000000000000  2.7506453788156700 16.9450000000000003   F   F   F
  2.7506453788156700  2.7506453788156700 16.9450000000000003   F   F   F
  5.5012907576313399  2.7506453788156700 16.9450000000000003   F   F   F
  0.0000000000000000  5.5012907576313399 16.9450000000000003   F   F   F
  2.7506453788156700  5.5012907576313399 16.9450000000000003   F   F   F
  5.5012907576313399  5.5012907576313399 16.9450000000000003   F   F   F
  1.3715043787061765  1.3707271818511513 18.9372413654309497   T   T   T
  4.1282450482933006  1.3715601477510750 18.9386739696233377   T   T   T
  6.8758923377835597  1.3765450933685097 18.9488021098887565   T   T   T
  1.3808059656870038  4.1306181642758206 18.9453761745836680   T   T   T
  4.1213152431691977  4.1297841900950010 18.9434391547323138   T   T   T
  6.8764084348290355  4.1245850110380582 18.9392041870515442   T   T   T
  1.3858862062374833  6.8651944202583675 18.9555898831380389   T   T   T
  4.1174709728170811  6.8667424747556360 18.9515257475898053   T   T   T
  6.8776863316362515  6.8810533730629668 18.9366993050240566   T   T   T
  0.0053258532282263  8.2477271174554101 20.9334759035231137   T   T   T
  2.7516577710939005  0.0063679449083634 20.9326292474779976   T   T   T
  5.4951340417942882  8.2489328136208364 20.9333218537012691   T   T   T
  0.0037840412234242  2.7583098791438387 20.9328720148946736   T   T   T
  2.7487195852530970  2.7306938160057892 20.9075813353299935   T   T   T
  5.4935358977918902  2.7593661050730485 20.9341332853630639   T   T   T
  8.2390552868920111  5.5007557021839775 20.9239306951950681   T   T   T
  2.7497097161476898  5.4983175306859406 21.0068417314830427   T   T   T
  5.5145315618752697  5.5030767714217435 20.9182423422322188   T   T   T
  2.8138261879760127  5.2980547940990759 23.1018250434066950   T   T   T
  3.5525081096392781  4.6381708107738682 23.3564957808798610   T   T   T
  3.0082210294251843  6.2175280265080239 23.5038087804155857   T   T   T
  1.9080491599625742  4.9513198573993744 23.4257870476705286   T   T   T
