CH3CHO_Ag100
 1.0000000000000000
     8.6762002051589384    0.0000000000000000    0.0000000000000000
     0.0000000000000000    8.6762002051589384    0.0000000000000000
     0.0000000000000000    0.0000000000000000   36.1349999999999980
 Ag  C   O   H  
  36   2   1   4
Selective dynamics
Cartesian
  1.4460333675264894  1.4460333675264894 15.0000000000000000   F   F   F
  4.3381001025794692  1.4460333675264894 15.0000000000000000   F   F   F
  7.2301668376324475  1.4460333675264894 15.0000000000000000   F   F   F
  1.4460333675264894  4.3381001025794692 15.0000000000000000   F   F   F
  4.3381001025794692  4.3381001025794692 15.0000000000000000   F   F   F
  7.2301668376324475  4.3381001025794692 15.0000000000000000   F   F   F
  1.4460333675264894  7.2301668376324475 15.0000000000000000   F   F   F
  4.3381001025794692  7.2301668376324475 15.0000000000000000   F   F   F
  7.2301668376324475  7.2301668376324475 15.0000000000000000   F   F   F
  0.0000000000000000  0.0000000000000000 17.0450000000000017   F   F   F
  2.8920667350529787  0.0000000000000000 17.0450000000000017   F   F   F
  5.7841334701059575  0.0000000000000000 17.0450000000000017   F   F   F
  0.0000000000000000  2.8920667350529787 17.0450000000000017   F   F   F
  2.8920667350529787  2.8920667350529787 17.0450000000000017   F   F   F
  5.7841334701059575  2.8920667350529787 17.0450000000000017   F   F   F
  0.0000000000000000  5.7841334701059575 17.0450000000000017   F   F   F
  2.8920667350529787  5.7841334701059575 17.0450000000000017   F   F   F
  5.7841334701059575  5.7841334701059575 17.0450000000000017   F   F   F
  1.4463913471323739  1.4408384943194132 19.1570868045922147   T   T   T
  4.3479260419480656  1.4534676260316621 19.1830566738040709   T   T   T
  7.2206893188104004  1.4529717765662731 19.1823311285472329   T   T   T
  1.4466543171780248  4.3448665024632884 19.1537738822722119   T   T   T
  4.3460659427141097  4.3270608619902546 19.1799901532830290   T   T   T
  7.2224759489523453  4.3273158009189947 19.1787790689662536   T   T   T
  1.4463754750326545  7.2277027789115520 19.1648364433382987   T   T   T
  4.3322136230275685  7.2305379950898594 19.1580079124370499   T   T   T
  7.2358648887698642  7.2306626151601643 19.1576502434518119   T   T   T
  0.0016767467576699  8.6757625515176837 21.2436009406631499   T   T   T
  2.8901762773411876  8.6758541164073701 21.2438094051159183   T   T   T
  5.7839594783711288  8.6487447271893068 21.2322558126221956   T   T   T
  0.0183399107229825  2.8936150615291369 21.2309004695072936   T   T   T
  2.8768692855920004  2.8935611984115637 21.2336072181996940   T   T   T
  5.7874442968002384  2.9235182598960616 21.3132245427480740   T   T   T
  8.6738064560396229  5.7809141767746448 21.2468354569732156   T   T   T
  2.8951285649955283  5.7803653266198696 21.2490883979937024   T   T   T
  5.7839755672555366  5.7945799280118777 21.2343358350048526   T   T   T
  5.9858321083565809  4.0637149234596546 25.2191981834335124   T   T   T
  5.8495344084038940  2.6252126502015303 24.8633174676647464   T   T   T
  5.7979709722748414  2.1809184651840563 23.7133440496448209   T   T   T
  5.1257130167568299  4.3911993586646192 25.8263798652557455   T   T   T
  6.8688277786102789  4.2276591201524507 25.8584823697803081   T   T   T
  6.0551451587164928  4.6690419178026836 24.3138074976506822   T   T   T
  5.7867175335056356  1.9136674141197894 25.7120599296777783   T   T   T
