C2H4_Ir100
 1.0000000000000000
     8.1458701192690270    0.0000000000000000    0.0000000000000000
     0.0000000000000000    8.1458701192690270    0.0000000000000000
     0.0000000000000000    0.0000000000000000   35.7599999999999980
 Ir  C   H  
  36   2   4
Selective dynamics
Cartesian
  1.3576450198781711  1.3576450198781711 15.0000000000000018   F   F   F
  4.0729350596345135  1.3576450198781711 15.0000000000000018   F   F   F
  6.7882250993908553  1.3576450198781711 15.0000000000000018   F   F   F
  1.3576450198781711  4.0729350596345135 15.0000000000000018   F   F   F
  4.0729350596345135  4.0729350596345135 15.0000000000000018   F   F   F
  6.7882250993908553  4.0729350596345135 15.0000000000000018   F   F   F
  1.3576450198781711  6.7882250993908553 15.0000000000000018   F   F   F
  4.0729350596345135  6.7882250993908553 15.0000000000000018   F   F   F
  6.7882250993908553  6.7882250993908553 15.0000000000000018   F   F   F
  0.0000000000000000  0.0000000000000000 16.9200000000000017   F   F   F
  2.7152900397563422  0.0000000000000000 16.9200000000000017   F   F   F
  5.4305800795126844  0.0000000000000000 16.9200000000000017   F   F   F
  0.0000000000000000  2.7152900397563422 16.9200000000000017   F   F   F
  2.7152900397563422  2.7152900397563422 16.9200000000000017   F   F   F
  5.4305800795126844  2.7152900397563422 16.9200000000000017   F   F   F
  0.0000000000000000  5.4305800795126844 16.9200000000000017   F   F   F
  2.7152900397563422  5.4305800795126844 16.9200000000000017   F   F   F
  5.4305800795126844  5.4305800795126844 16.9200000000000017   F   F   F
  1.3700549685419265  1.3657849220227589 18.8886420753068727   T   T   T
  4.0634939887113672  1.3750781441403817 18.8928847820557628   T   T   T
  6.7808990986166160  1.3502417409915723 18.8599324413035561   T   T   T
  1.3508193193391285  4.0667238045569993 18.8712525562418527   T   T   T
  4.0624106875612096  4.0829032467777839 18.8956602694353144   T   T   T
  6.7958948548036942  4.0856511035944036 18.8884895210534474   T   T   T
  1.3664746319802676  6.7771659476632475 18.8964806498967270   T   T   T
  4.0697951611094911  6.7854519426636797 18.8871169932028131   T   T   T
  6.8049779643640855  6.7797309387066811 18.8930202802641389   T   T   T
  0.0110395716834864  0.0121212636597689 20.7322373505691324   T   T   T
  2.7235032485511588  0.0081447234744404 20.7326623546959219   T   T   T
  5.4247928790955280  8.1412857886007473 20.7378234346108350   T   T   T
  8.1153745671964650  2.6845489725557208 20.6992376095938475   T   T   T
  2.7078927928896013  2.7262449506847162 20.8202841682655482   T   T   T
  5.4436939571708134  2.7267651187325810 20.7317335142478605   T   T   T
  0.0113801960775425  5.4213034274551166 20.8212901439449283   T   T   T
  2.7331899985940007  5.4487633638005466 20.8217268269420543   T   T   T
  5.4384519427175499  5.4398667132332790 20.7328678730238138   T   T   T
  1.4624082820332127  5.2206950486841652 22.5444077035233228   T   T   T
  2.5224821561320390  4.1817775487670419 22.5397044304538561   T   T   T
  0.3918189332793122  4.7625508832549546 22.5893934705423547   T   T   T
  1.5570721474353884  6.0447627299845079 23.2502431490227863   T   T   T
  2.0904587636254530  3.0952350723524251 22.5810515593227663   T   T   T
  3.3485029737049676  4.2856397427949604 23.2423530469279243   T   T   T
