H2S_Rh110
 1.0000000000000000
    11.4089999999999989    0.0000000000000000    0.0000000000000000
     0.0000000000000000    5.3782541777048811    0.0000000000000000
     0.0000000000000000    0.0000000000000000   34.0336906332786597
 Rh  S   H  
  24   1   2
Selective dynamics
Cartesian
  1.9014999999999997  1.3445635444262203 15.0000000000000000   F   F   F
  5.7044999999999995  1.3445635444262203 15.0000000000000000   F   F   F
  9.5074999999999985  1.3445635444262203 15.0000000000000000   F   F   F
  1.9014999999999997  4.0336906332786606 15.0000000000000000   F   F   F
  5.7044999999999995  4.0336906332786606 15.0000000000000000   F   F   F
  9.5074999999999985  4.0336906332786606 15.0000000000000000   F   F   F
  0.0000000000000000  0.0000000000000000 16.3445635444262187   F   F   F
  3.8029999999999995  0.0000000000000000 16.3445635444262187   F   F   F
  7.6059999999999990  0.0000000000000000 16.3445635444262187   F   F   F
  0.0000000000000000  2.6891270888524406 16.3445635444262187   F   F   F
  3.8029999999999995  2.6891270888524406 16.3445635444262187   F   F   F
  7.6059999999999990  2.6891270888524406 16.3445635444262187   F   F   F
  1.8925634509936491  1.3497747751135716 17.7102608806613624   T   T   T
  5.7100280246963244  1.3477339938361443 17.6949297893997368   T   T   T
  9.5185230382025026  1.3535974280059078 17.7420874897863854   T   T   T
  1.8826627194909238  4.0419132374912010 17.7374662211913900   T   T   T
  5.7119268381284005  4.0413585145262019 17.7299062574693664   T   T   T
  9.5145272501530354  4.0424352120596625 17.7378840216425822   T   T   T
  0.0017451164322281  0.0099317197518315 19.0007337954163518   T   T   T
  3.7988605120183587  5.3600195432955529 19.0430598347262823   T   T   T
  7.6008989786435341  0.0125343792773585 18.9881412705439274   T   T   T
 11.4031279440176565  2.7027957998190280 19.0462265277504912   T   T   T
  3.8141492322189290  2.7261456428919897 19.0280338605690744   T   T   T
  7.6025555111393857  2.7016910952730222 18.9845840063004232   T   T   T
  3.6492824465938947  1.3660965264833840 20.8787442620700503   T   T   T
  0.0256979004857367  2.6314133439776337 20.6255544150344470   T   T   T
  2.2922200858296193  1.4248064272644174 21.0831850729760362   T   T   T
