CH3OH_Pd100
 1.0000000000000000
     8.2519361364470107    0.0000000000000000    0.0000000000000000
     0.0000000000000000    8.2519361364470107    0.0000000000000000
     0.0000000000000000    0.0000000000000000   35.8350000000000009
 Pd  C   O   H  
  36   1   1   4
Selective dynamics
Cartesian
  1.3753226894078350  1.3753226894078350 15.0000000000000000   F   F   F
  4.1259680682235054  1.3753226894078350 15.0000000000000000   F   F   F
  6.8766134470391780  1.3753226894078350 15.0000000000000000   F   F   F
  1.3753226894078350  4.1259680682235054 15.0000000000000000   F   F   F
  4.1259680682235054  4.1259680682235054 15.0000000000000000   F   F   F
  6.8766134470391780  4.1259680682235054 15.0000000000000000   F   F   F
  1.3753226894078350  6.8766134470391780 15.0000000000000000   F   F   F
  4.1259680682235054  6.8766134470391780 15.0000000000000000   F   F   F
  6.8766134470391780  6.8766134470391780 15.0000000000000000   F   F   F
  0.0000000000000000  0.0000000000000000 16.9450000000000003   F   F   F
  2.7506453788156700  0.0000000000000000 16.9450000000000003   F   F   F
  5.5012907576313399  0.0000000000000000 16.9450000000000003   F   F   F
  0.0000000000000000  2.7506453788156700 16.9450000000000003   F   F   F
  2.7506453788156700  2.7506453788156700 16.9450000000000003   F   F   F
  5.5012907576313399  2.7506453788156700 16.9450000000000003   F   F   F
  0.0000000000000000  5.5012907576313399 16.9450000000000003   F   F   F
  2.7506453788156700  5.5012907576313399 16.9450000000000003   F   F   F
  5.5012907576313399  5.5012907576313399 16.9450000000000003   F   F   F
  1.3737207759768872  1.3723501964608791 18.9348108155190964   T   T   T
  4.1301124469916886  1.3853760605382091 18.9440042888943871   T   T   T
  6.8709558094596508  1.3819176125052535 18.9435896557505963   T   T   T
  1.3721757330029791  4.1269381830596377 18.9328693077723287   T   T   T
  4.1351462483858370  4.1227593447055941 18.9480770012397421   T   T   T
  6.8666538364569769  4.1211990952138082 18.9456309897202999   T   T   T
  1.3749453253406954  6.8763232305208692 18.9430578003596288   T   T   T
  4.1250706394363714  6.8800584740807498 18.9349331653543160   T   T   T
  6.8789638446469761  6.8767400745299971 18.9355596440578431   T   T   T
  8.2489297304376237  8.2514787926384319 20.9274975613816849   T   T   T
  2.7556561907418482  0.0016673863326296 20.9250105713412928   T   T   T
  5.4998801442788148  0.0133297824184305 20.9138710950452378   T   T   T
  0.0047936644042363  2.7486884614957887 20.9126592177610426   T   T   T
  2.7323143097016640  2.7526438767796462 20.9018532532134778   T   T   T
  5.5001706378042980  2.7958250639955624 20.9892144867807566   T   T   T
  8.2509406129138867  5.4948021896901595 20.9274556896439705   T   T   T
  2.7556615525249590  5.4999982003016088 20.9200402862143839   T   T   T
  5.5020009588974972  5.5419598179702092 20.9233967757951049   T   T   T
  4.5125367112544152  3.2344361741690557 23.9238372902045597   T   T   T
  5.5337672969297893  2.4968836636070981 23.2176318253800424   T   T   T
  4.5907708156537206  3.0553338183385490 25.0051932004147339   T   T   T
  5.3237203117629228  1.5383827581368734 23.2181581697116179   T   T   T
  4.6828135399095574  4.2986428544243180 23.7291392466644986   T   T   T
  3.5018889038031471  2.9661739605402135 23.5715512264265179   T   T   T
