NH3_Cu111
 1.0000000000000000
    10.2106219203337467    0.0000000000000000    0.0000000000000000
     0.0000000000000000    8.8426579714472719    0.0000000000000000
     0.0000000000000000    0.0000000000000000   36.2527034153236514
 Cu  N   H  
  64   1   3
Selective dynamics
Cartesian
  0.0000000000000000  0.0000000000000000 15.0000000000000000   F   F   F
  2.5526554800834367  0.0000000000000000 15.0000000000000000   F   F   F
  5.1053109601668734  0.0000000000000000 15.0000000000000000   F   F   F
  7.6579664402503100  0.0000000000000000 15.0000000000000000   F   F   F
  1.2763277400417183  2.2106644928618180 15.0000000000000000   F   F   F
  3.8289832201251550  2.2106644928618180 15.0000000000000000   F   F   F
  6.3816387002085921  2.2106644928618180 15.0000000000000000   F   F   F
  8.9342941802920279  2.2106644928618180 15.0000000000000000   F   F   F
  0.0000000000000000  4.4213289857236360 15.0000000000000000   F   F   F
  2.5526554800834367  4.4213289857236360 15.0000000000000000   F   F   F
  5.1053109601668734  4.4213289857236360 15.0000000000000000   F   F   F
  7.6579664402503100  4.4213289857236360 15.0000000000000000   F   F   F
  1.2763277400417183  6.6319934785854526 15.0000000000000000   F   F   F
  3.8289832201251550  6.6319934785854526 15.0000000000000000   F   F   F
  6.3816387002085921  6.6319934785854526 15.0000000000000000   F   F   F
  8.9342941802920279  6.6319934785854526 15.0000000000000000   F   F   F
  1.2763277400417183  0.7368881642872727 17.0842344717745505   F   F   F
  3.8289832201251550  0.7368881642872727 17.0842344717745505   F   F   F
  6.3816387002085921  0.7368881642872727 17.0842344717745505   F   F   F
  8.9342941802920279  0.7368881642872727 17.0842344717745505   F   F   F
  0.0000000000000000  2.9475526571490906 17.0842344717745505   F   F   F
  2.5526554800834367  2.9475526571490906 17.0842344717745505   F   F   F
  5.1053109601668734  2.9475526571490906 17.0842344717745505   F   F   F
  7.6579664402503100  2.9475526571490906 17.0842344717745505   F   F   F
  1.2763277400417183  5.1582171500109091 17.0842344717745505   F   F   F
  3.8289832201251550  5.1582171500109091 17.0842344717745505   F   F   F
  6.3816387002085921  5.1582171500109091 17.0842344717745505   F   F   F
  8.9342941802920279  5.1582171500109091 17.0842344717745505   F   F   F
  0.0000000000000000  7.3688816428727266 17.0842344717745505   F   F   F
  2.5526554800834367  7.3688816428727266 17.0842344717745505   F   F   F
  5.1053109601668734  7.3688816428727266 17.0842344717745505   F   F   F
  7.6579664402503100  7.3688816428727266 17.0842344717745505   F   F   F
 10.2104731515174887  1.4730320550691616 19.1668706317846578   T   T   T
  2.5468624780721880  1.4730915355253611 19.1553015791522192   T   T   T
  5.1062445929506506  1.4739736684629656 19.1590751288552354   T   T   T
  7.6633094820603205  1.4734416086018167 19.1559295181621962   T   T   T
  1.2728326781760515  3.6798431307136603 19.1544349494448802   T   T   T
  3.8458827659390611  3.6941001825651250 19.1943564420460859   T   T   T
  6.3633535221111721  3.6947278472574832 19.1976297535110874   T   T   T
  8.9371143203330163  3.6803490790631255 19.1550991111205740   T   T   T
  0.0000174825395454  5.8952148529132211 19.1661131854579416   T   T   T
  2.5516457879015504  5.8949380069772479 19.1563253540563601   T   T   T
  5.1057777246185410  5.8761740771772422 19.1931290937874479   T   T   T
  7.6588089729005100  5.8951072137301761 19.1576301537581628   T   T   T
  1.2765641693397001  8.1049272220085538 19.1654663462337638   T   T   T
  3.8312605434384981  8.1126911630527054 19.1539691356016384   T   T   T
  6.3794411414422143  8.1114493817683968 19.1558908482175916   T   T   T
  8.9339800897197676  8.1047586887612049 19.1653538899263793   T   T   T
 10.2103423203519057  0.0003056741735985 21.2559697756383521   T   T   T
  2.5474242854067075  0.0020032509544089 21.2657516710921577   T   T   T
  5.1055305521244794  8.8405680602493177 21.2665448642779360   T   T   T
  7.6618158338112750  0.0018670288280981 21.2634351760693008   T   T   T
  1.2757719251259387  2.2099379738559599 21.2608287485662792   T   T   T
  3.8168431578671793  2.1829277960948459 21.2211268925193011   T   T   T
  6.3918965512078900  2.1873416346391616 21.2281018636542420   T   T   T
  8.9344996120505762  2.2108422782959636 21.2605594718014750   T   T   T
 10.2088762381141009  4.4197982853591338 21.2643417650221309   T   T   T
  2.5180282444558859  4.4233089149867251 21.2178604838380025   T   T   T
  5.0969677638292978  4.4295477706560700 21.4087084240659173   T   T   T
  7.6855260848782327  4.4230891735864786 21.2237012541511127   T   T   T
  1.2731620263888490  6.6333668892856714 21.2626387851070646   T   T   T
  3.8085004130236126  6.6634926455548200 21.2123487895775682   T   T   T
  6.4003880148439176  6.6581868422339063 21.2211041507868039   T   T   T
  8.9378091992221709  6.6328487008748453 21.2620321863915080   T   T   T
  5.0253232996858994  4.4983724142692214 23.5162223790922233   T   T   T
  4.8460495012613620  5.4484843066162272 23.8537754065159540   T   T   T
  4.2858931341257875  3.8870366799278573 23.8737005047211994   T   T   T
  5.9209011896360337  4.1835616676347840 23.8988192669001904   T   T   T
