CH4_Rh100
 1.0000000000000000
     8.0673812665573212    0.0000000000000000    0.0000000000000000
     0.0000000000000000    8.0673812665573212    0.0000000000000000
     0.0000000000000000    0.0000000000000000   35.7044999999999959
 Rh  C   H  
  36   1   4
Selective dynamics
Cartesian
  1.3445635444262201  1.3445635444262201 14.9999999999999964   F   F   F
  4.0336906332786597  1.3445635444262201 14.9999999999999964   F   F   F
  6.7228177221311043  1.3445635444262201 14.9999999999999964   F   F   F
  1.3445635444262201  4.0336906332786597 14.9999999999999964   F   F   F
  4.0336906332786597  4.0336906332786597 14.9999999999999964   F   F   F
  6.7228177221311043  4.0336906332786597 14.9999999999999964   F   F   F
  1.3445635444262201  6.7228177221311043 14.9999999999999964   F   F   F
  4.0336906332786597  6.7228177221311043 14.9999999999999964   F   F   F
  6.7228177221311043  6.7228177221311043 14.9999999999999964   F   F   F
  0.0000000000000000  0.0000000000000000 16.9014999999999986   F   F   F
  2.6891270888524401  0.0000000000000000 16.9014999999999986   F   F   F
  5.3782541777048802  0.0000000000000000 16.9014999999999986   F   F   F
  0.0000000000000000  2.6891270888524401 16.9014999999999986   F   F   F
  2.6891270888524401  2.6891270888524401 16.9014999999999986   F   F   F
  5.3782541777048802  2.6891270888524401 16.9014999999999986   F   F   F
  0.0000000000000000  5.3782541777048802 16.9014999999999986   F   F   F
  2.6891270888524401  5.3782541777048802 16.9014999999999986   F   F   F
  5.3782541777048802  5.3782541777048802 16.9014999999999986   F   F   F
  1.3424021236849935  1.3469706131093091 18.8450017358228266   T   T   T
  4.0338944338267009  1.3421754113424054 18.8406787365428841   T   T   T
  6.7246781363722015  1.3472961269223043 18.8451298062343611   T   T   T
  1.3419398318306106  4.0306800220351011 18.8448842811580555   T   T   T
  4.0336034838672141  4.0358760395292013 18.8400722857909244   T   T   T
  6.7255672570295912  4.0312501064507069 18.8445183843447630   T   T   T
  1.3474901858679793  6.7231829261645144 18.8401906771985388   T   T   T
  4.0332331471541636  6.7224866978821778 18.8406558799260289   T   T   T
  6.7203389576712711  6.7229538045835362 18.8396047082399818   T   T   T
  8.0664099102397078  8.0630097507898046 20.6860984049223937   T   T   T
  2.6856631483557463  0.0039770853290467 20.6923799541438065   T   T   T
  5.3817231233658473  0.0032185935537130 20.6912414660097745   T   T   T
  8.0671792296096072  2.6877121599410425 20.7072207141777120   T   T   T
  2.6940708364107997  2.6892714820665393 20.6868651977505884   T   T   T
  5.3737974650023270  2.6895095695659106 20.6859229007502989   T   T   T
  8.0670242270059749  5.3830676313233266 20.6864948424345769   T   T   T
  2.6852399862820127  5.3738081562526494 20.6924664442394217   T   T   T
  5.3823781788235934  5.3746957578776469 20.6915645565628061   T   T   T
  7.8968124937872135  2.5872265323426960 23.8123808915366233   T   T   T
  8.0414475609275051  3.5774749420391512 23.3614507264075115   T   T   T
  7.9201028481450022  2.7000121516974929 24.9028303506278199   T   T   T
  0.6344785793566461  1.9097948566388270 23.5072986850057042   T   T   T
  6.9262822398687449  2.1758784142383787 23.5151654973060111   T   T   T
