C2H6_Pd100
 1.0000000000000000
    11.0025815152626798    0.0000000000000000    0.0000000000000000
     0.0000000000000000   11.0025815152626798    0.0000000000000000
     0.0000000000000000    0.0000000000000000   35.8350000000000009
 Pd  C   H  
  64   2   6
Selective dynamics
Cartesian
  1.3753226894078348  1.3753226894078348 15.0000000000000000   F   F   F
  4.1259680682235054  1.3753226894078348 15.0000000000000000   F   F   F
  6.8766134470391735  1.3753226894078348 15.0000000000000000   F   F   F
  9.6272588258548453  1.3753226894078348 15.0000000000000000   F   F   F
  1.3753226894078348  4.1259680682235054 15.0000000000000000   F   F   F
  4.1259680682235054  4.1259680682235054 15.0000000000000000   F   F   F
  6.8766134470391735  4.1259680682235054 15.0000000000000000   F   F   F
  9.6272588258548453  4.1259680682235054 15.0000000000000000   F   F   F
  1.3753226894078348  6.8766134470391735 15.0000000000000000   F   F   F
  4.1259680682235054  6.8766134470391735 15.0000000000000000   F   F   F
  6.8766134470391735  6.8766134470391735 15.0000000000000000   F   F   F
  9.6272588258548453  6.8766134470391735 15.0000000000000000   F   F   F
  1.3753226894078348  9.6272588258548453 15.0000000000000000   F   F   F
  4.1259680682235054  9.6272588258548453 15.0000000000000000   F   F   F
  6.8766134470391735  9.6272588258548453 15.0000000000000000   F   F   F
  9.6272588258548453  9.6272588258548453 15.0000000000000000   F   F   F
  0.0000000000000000  0.0000000000000000 16.9450000000000003   F   F   F
  2.7506453788156695  0.0000000000000000 16.9450000000000003   F   F   F
  5.5012907576313390  0.0000000000000000 16.9450000000000003   F   F   F
  8.2519361364470107  0.0000000000000000 16.9450000000000003   F   F   F
  0.0000000000000000  2.7506453788156695 16.9450000000000003   F   F   F
  2.7506453788156695  2.7506453788156695 16.9450000000000003   F   F   F
  5.5012907576313390  2.7506453788156695 16.9450000000000003   F   F   F
  8.2519361364470107  2.7506453788156695 16.9450000000000003   F   F   F
  0.0000000000000000  5.5012907576313390 16.9450000000000003   F   F   F
  2.7506453788156695  5.5012907576313390 16.9450000000000003   F   F   F
  5.5012907576313390  5.5012907576313390 16.9450000000000003   F   F   F
  8.2519361364470107  5.5012907576313390 16.9450000000000003   F   F   F
  0.0000000000000000  8.2519361364470107 16.9450000000000003   F   F   F
  2.7506453788156695  8.2519361364470107 16.9450000000000003   F   F   F
  5.5012907576313390  8.2519361364470107 16.9450000000000003   F   F   F
  8.2519361364470107  8.2519361364470107 16.9450000000000003   F   F   F
  1.3753261686532987  1.3756072503628523 18.9364831097413706   T   T   T
  4.1348509500180350  1.3765108334489362 18.9572754012515077   T   T   T
  6.8669210272927472  1.3728367201691725 18.9579859633439867   T   T   T
  9.6268918004278401  1.3755368411711539 18.9362487922359222   T   T   T
  1.3753807046522581  4.1275216327350774 18.9402813326981025   T   T   T
  4.1290853512990005  4.1233634624977826 18.9450266631249065   T   T   T
  6.8733915145305788  4.1220445815776854 18.9439243237690533   T   T   T
  9.6288904561286870  4.1289843764873986 18.9386959133368720   T   T   T
  1.3754702659757423  6.8760575501883139 18.9435723808439391   T   T   T
  4.1249592968301378  6.8775856304511773 18.9401099114895075   T   T   T
  6.8774602378287408  6.8754829117664356 18.9401714412929465   T   T   T
  9.6275990780463232  6.8767484628594850 18.9429242295704121   T   T   T
  1.3739280500441544  9.6241650410795607 18.9383947332288898   T   T   T
  4.1298753153403549  9.6319155389925228 18.9454664942460305   T   T   T
  6.8724072581348992  9.6308989798024918 18.9469482128490974   T   T   T
  9.6273794746992216  9.6253833014952157 18.9393118928018680   T   T   T
 10.9981728658434825  0.0002677251228402 20.9279643005180986   T   T   T
  2.7346533746154584  0.0034661815493628 20.9160575196221110   T   T   T
  5.5013855027179330 10.9846153842064655 20.9653723108152370   T   T   T
  8.2585787591216544  0.0021129492820110 20.9229101410136877   T   T   T
  0.0038860198278062  2.7502451845170230 20.9280036921052570   T   T   T
  2.7463862383402233  2.7479514065604729 20.9241975435243504   T   T   T
  5.4976942613348552  2.7700777626604371 20.9571390035861995   T   T   T
  8.2639390450324584  2.7473952178662695 20.9161487706487357   T   T   T
  0.0000609673395446  5.5013446119968963 20.9319853880213422   T   T   T
  2.7545837696050528  5.4967454683090109 20.9294141982204813   T   T   T
  5.5019983345444672  5.5075328782580177 20.9288355905076635   T   T   T
  8.2485899227623687  5.4981992596293701 20.9299681808522919   T   T   T
 11.0024557580157456  8.2519726165871461 20.9317138333358734   T   T   T
  2.7544383627135653  8.2558133204820212 20.9302635788121343   T   T   T
  5.5002629192277510  8.2435571669681558 20.9271219087150335   T   T   T
  8.2482410468987197  8.2560549226578086 20.9279500639711102   T   T   T
  5.7350324814320777  2.0745769226809787 23.7860385711975937   T   T   T
  5.3094199837593843  0.6113114521843496 23.7241563604951828   T   T   T
  4.8748301343834992  2.7557654923479369 23.7285544306841842   T   T   T
  6.2781729967626223  2.2960200250978655 24.7159157263114793   T   T   T
  6.4530572382274931  2.3334771328891808 22.9707381515486624   T   T   T
  4.4966250972747472  0.4499574922897697 22.9761673569651279   T   T   T
  4.8800566104045515  0.2667854020779963 24.6771588719899491   T   T   T
  6.1588449957929328 10.9486435126216701 23.4967605026225463   T   T   T
