NO_Ir100
 1.0000000000000000
     8.1458701192690270    0.0000000000000000    0.0000000000000000
     0.0000000000000000    8.1458701192690270    0.0000000000000000
     0.0000000000000000    0.0000000000000000   35.7599999999999980
 Ir  N   O  
  36   1   1
Selective dynamics
Cartesian
  1.3576450198781711  1.3576450198781711 15.0000000000000018   F   F   F
  4.0729350596345135  1.3576450198781711 15.0000000000000018   F   F   F
  6.7882250993908553  1.3576450198781711 15.0000000000000018   F   F   F
  1.3576450198781711  4.0729350596345135 15.0000000000000018   F   F   F
  4.0729350596345135  4.0729350596345135 15.0000000000000018   F   F   F
  6.7882250993908553  4.0729350596345135 15.0000000000000018   F   F   F
  1.3576450198781711  6.7882250993908553 15.0000000000000018   F   F   F
  4.0729350596345135  6.7882250993908553 15.0000000000000018   F   F   F
  6.7882250993908553  6.7882250993908553 15.0000000000000018   F   F   F
  0.0000000000000000  0.0000000000000000 16.9200000000000017   F   F   F
  2.7152900397563422  0.0000000000000000 16.9200000000000017   F   F   F
  5.4305800795126844  0.0000000000000000 16.9200000000000017   F   F   F
  0.0000000000000000  2.7152900397563422 16.9200000000000017   F   F   F
  2.7152900397563422  2.7152900397563422 16.9200000000000017   F   F   F
  5.4305800795126844  2.7152900397563422 16.9200000000000017   F   F   F
  0.0000000000000000  5.4305800795126844 16.9200000000000017   F   F   F
  2.7152900397563422  5.4305800795126844 16.9200000000000017   F   F   F
  5.4305800795126844  5.4305800795126844 16.9200000000000017   F   F   F
  1.3474480554675408  1.3571099130257918 18.8690194115682104   T   T   T
  4.0700359188823860  1.3570585643250581 18.8694377577046097   T   T   T
  6.7811629566246587  1.3575670966168003 18.8695785435223016   T   T   T
  1.3641197197425030  4.0671826818298680 18.8977770494307862   T   T   T
  4.0528595494876525  4.0671752047417309 18.8979139910528744   T   T   T
  6.7817651516034383  4.0803970352179579 18.8728651150949354   T   T   T
  1.3637398208980200  6.7916600986082543 18.8967950449687585   T   T   T
  4.0534714487265129  6.7914514954284027 18.8966312763925686   T   T   T
  6.7819280286090891  6.7801619231930106 18.8724360013464576   T   T   T
  8.1157224795270793  8.1449842791911351 20.7242770798367530   T   T   T
  2.7047400039939187  8.1346322382783924 20.8412090437474724   T   T   T
  5.4422196004398451  8.1448031771734790 20.7242838507055112   T   T   T
  8.1159425110894823  2.7149158369179691 20.7248978639293888   T   T   T
  2.7042261828684953  2.7199402469344145 20.8472240081003548   T   T   T
  5.4417902632036421  2.7150429539147392 20.7249535142320802   T   T   T
  8.1444014865480252  5.4298146873044670 20.7468782008258614   T   T   T
  2.7066346778290629  5.4286682756203106 20.7706122103085242   T   T   T
  5.4141907255720163  5.4300529382670648 20.7474144226178367   T   T   T
  2.6891406696734181  1.3490662798463002 22.2517620258556406   T   T   T
  2.6762416580253330  1.3437785547196641 23.4601939805118249   T   T   T
