NO_Cu110
 1.0000000000000000
    10.8300000000000001    0.0000000000000000    0.0000000000000000
     0.0000000000000000    5.1053109601668734    0.0000000000000000
     0.0000000000000000    0.0000000000000000   33.8289832201251528
 Cu  N   O  
  24   1   1
Selective dynamics
Cartesian
  1.8049999999999999  1.2763277400417183 14.9999999999999982   F   F   F
  5.4149999999999991  1.2763277400417183 14.9999999999999982   F   F   F
  9.0249999999999986  1.2763277400417183 14.9999999999999982   F   F   F
  1.8049999999999999  3.8289832201251550 14.9999999999999982   F   F   F
  5.4149999999999991  3.8289832201251550 14.9999999999999982   F   F   F
  9.0249999999999986  3.8289832201251550 14.9999999999999982   F   F   F
  0.0000000000000000  0.0000000000000000 16.2763277400417152   F   F   F
  3.6099999999999999  0.0000000000000000 16.2763277400417152   F   F   F
  7.2199999999999998  0.0000000000000000 16.2763277400417152   F   F   F
  0.0000000000000000  2.5526554800834367 16.2763277400417152   F   F   F
  3.6099999999999999  2.5526554800834367 16.2763277400417152   F   F   F
  7.2199999999999998  2.5526554800834367 16.2763277400417152   F   F   F
  1.7864172409731909  1.2758698931804140 17.5674386595376966   T   T   T
  5.4345429263395770  1.2758112294652189 17.5733946143193585   T   T   T
  9.0299364580512194  1.2760889061101766 17.6080834499156573   T   T   T
  1.8291081961862206  3.8281232614107221 17.6095095864574809   T   T   T
  5.3972050545698877  3.8282173627289708 17.6066892327325739   T   T   T
  9.0309207459036216  3.8287648505201055 17.5982129653949784   T   T   T
  0.0048146953742410  5.1017338014403988 18.7655329301528049   T   T   T
  3.6072395999243456  5.0754314931931619 18.8632991685954536   T   T   T
  7.2282504480793168  5.0996085730796272 18.7609727949327478   T   T   T
  0.0048574834411805  2.5552630647549091 18.7654429159410938   T   T   T
  3.6073510037791539  2.5817882609906500 18.8629515639315954   T   T   T
  7.2282408275748029  2.5573140412987381 18.7608686862747653   T   T   T
  3.7849126429270501  1.2747257635971023 20.2030441677586268   T   T   T
  4.0828052555746694  1.2739857654422118 21.3698338312398874   T   T   T
