NO_Ir111
 1.0000000000000000
    10.8611601590253706    0.0000000000000000    0.0000000000000000
     0.0000000000000000    9.4060406122874021    0.0000000000000000
     0.0000000000000000    0.0000000000000000   36.6510751010644924
 Ir  N   O  
  64   1   1
Selective dynamics
Cartesian
  0.0000000000000000  0.0000000000000000 15.0000000000000018   F   F   F
  2.7152900397563422  0.0000000000000000 15.0000000000000018   F   F   F
  5.4305800795126844  0.0000000000000000 15.0000000000000018   F   F   F
  8.1458701192690270  0.0000000000000000 15.0000000000000018   F   F   F
  1.3576450198781711  2.3515101530718505 15.0000000000000018   F   F   F
  4.0729350596345135  2.3515101530718505 15.0000000000000018   F   F   F
  6.7882250993908571  2.3515101530718505 15.0000000000000018   F   F   F
  9.5035151391471988  2.3515101530718505 15.0000000000000018   F   F   F
  0.0000000000000000  4.7030203061437010 15.0000000000000018   F   F   F
  2.7152900397563422  4.7030203061437010 15.0000000000000018   F   F   F
  5.4305800795126844  4.7030203061437010 15.0000000000000018   F   F   F
  8.1458701192690270  4.7030203061437010 15.0000000000000018   F   F   F
  1.3576450198781711  7.0545304592155516 15.0000000000000018   F   F   F
  4.0729350596345135  7.0545304592155516 15.0000000000000018   F   F   F
  6.7882250993908571  7.0545304592155516 15.0000000000000018   F   F   F
  9.5035151391471988  7.0545304592155516 15.0000000000000018   F   F   F
  1.3576450198781711  0.7838367176906168 17.2170250336881665   F   F   F
  4.0729350596345135  0.7838367176906168 17.2170250336881665   F   F   F
  6.7882250993908571  0.7838367176906168 17.2170250336881665   F   F   F
  9.5035151391471988  0.7838367176906168 17.2170250336881665   F   F   F
  0.0000000000000000  3.1353468707624672 17.2170250336881665   F   F   F
  2.7152900397563422  3.1353468707624672 17.2170250336881665   F   F   F
  5.4305800795126844  3.1353468707624672 17.2170250336881665   F   F   F
  8.1458701192690270  3.1353468707624672 17.2170250336881665   F   F   F
  1.3576450198781711  5.4868570238343182 17.2170250336881665   F   F   F
  4.0729350596345135  5.4868570238343182 17.2170250336881665   F   F   F
  6.7882250993908571  5.4868570238343182 17.2170250336881665   F   F   F
  9.5035151391471988  5.4868570238343182 17.2170250336881665   F   F   F
  0.0000000000000000  7.8383671769061687 17.2170250336881665   F   F   F
  2.7152900397563422  7.8383671769061687 17.2170250336881665   F   F   F
  5.4305800795126844  7.8383671769061687 17.2170250336881665   F   F   F
  8.1458701192690270  7.8383671769061687 17.2170250336881665   F   F   F
 10.8609128177175389  1.5666510065112951 19.4419721676816692   T   T   T
  2.7122512824311253  1.5666167954803041 19.4424158746444284   T   T   T
  5.4276903385410122  1.5711211757685855 19.4461995896174784   T   T   T
  8.1457005593951948  1.5712413302157981 19.4461722755049706   T   T   T
  1.3561978934771985  3.9237224609776717 19.4530394689445210   T   T   T
  4.0612441708757263  3.9226806945136605 19.4636256822341949   T   T   T
  6.7868285928087397  3.9171181417519798 19.4488956454263899   T   T   T
  9.5117601433939551  3.9225174959778584 19.4613739279036366   T   T   T
  0.0041257099763508  6.2642531094051419 19.4537228534717030   T   T   T
  2.7081308820846695  6.2641131557161183 19.4543400629281606   T   T   T
  5.4255996369588599  6.2662197133909894 19.4418190116077234   T   T   T
  8.1476165458640146  6.2662214148446669 19.4409349841552661   T   T   T
  1.3559284857135092  8.6043623697125060 19.4644677931730783   T   T   T
  4.0673704299356350  8.6184707547548793 19.4408788685009206   T   T   T
  6.7866364162301176  8.6252989268516362 19.4391914329216640   T   T   T
  9.5058124753501758  8.6188432713898386 19.4406215488159297   T   T   T
 10.8543859740185535  9.3868070170580022 21.6592184043094491   T   T   T
  2.7173654252122761  9.3869913176602768 21.6594303065757607   T   T   T
  5.4293440844667717  0.0028210618677669 21.6542976598293322   T   T   T
  8.1426892149775796  0.0030543631645619 21.6540525242352047   T   T   T
  1.3559909060089013  2.3043156752696019 21.6434530545330439   T   T   T
  4.0659689871989970  2.3562589747021949 21.6572997784477757   T   T   T
  6.7859959884956416  2.3480369431662180 21.6572783287807162   T   T   T
  9.5059994161269579  2.3560004553343075 21.6573945516885544   T   T   T
 10.8490373613634929  4.6928125146668638 21.7325901538466439   T   T   T
  2.7205916593810477  4.6945271111734659 21.7373933194466531   T   T   T
  5.4150177243336302  4.7066804327761700 21.6581964423447246   T   T   T
  8.1571140967607629  4.7069228499413356 21.6584334856179339   T   T   T
  1.3557129929512866  7.0557990486114148 21.7383665679632756   T   T   T
  4.1080714688297411  7.0729872235993430 21.6470566906744608   T   T   T
  6.7859004789871005  7.0504976477818726 21.6571800092499842   T   T   T
  9.4634614289362897  7.0744505607008916 21.6460973551764546   T   T   T
  1.3455192582180036  5.4706965334597433 23.0711533860305771   T   T   T
  1.3345992316173829  5.4535304613860403 24.2956943570278767   T   T   T
