CO2_Pd111
 1.0000000000000000
    11.0025815152626798    0.0000000000000000    0.0000000000000000
     0.0000000000000000    9.5285150994265617    0.0000000000000000
     0.0000000000000000    0.0000000000000000   36.7376776414429358
 Pd  O   C  
  64   2   1
Selective dynamics
Cartesian
  0.0000000000000000  0.0000000000000000 15.0000000000000000   F   F   F
  2.7506453788156695  0.0000000000000000 15.0000000000000000   F   F   F
  5.5012907576313390  0.0000000000000000 15.0000000000000000   F   F   F
  8.2519361364470107  0.0000000000000000 15.0000000000000000   F   F   F
  1.3753226894078348  2.3821287748566404 15.0000000000000000   F   F   F
  4.1259680682235054  2.3821287748566404 15.0000000000000000   F   F   F
  6.8766134470391735  2.3821287748566404 15.0000000000000000   F   F   F
  9.6272588258548453  2.3821287748566404 15.0000000000000000   F   F   F
  0.0000000000000000  4.7642575497132809 15.0000000000000000   F   F   F
  2.7506453788156695  4.7642575497132809 15.0000000000000000   F   F   F
  5.5012907576313390  4.7642575497132809 15.0000000000000000   F   F   F
  8.2519361364470107  4.7642575497132809 15.0000000000000000   F   F   F
  1.3753226894078348  7.1463863245699208 15.0000000000000000   F   F   F
  4.1259680682235054  7.1463863245699208 15.0000000000000000   F   F   F
  6.8766134470391735  7.1463863245699208 15.0000000000000000   F   F   F
  9.6272588258548453  7.1463863245699208 15.0000000000000000   F   F   F
  1.3753226894078348  0.7940429249522134 17.2458925471476441   F   F   F
  4.1259680682235054  0.7940429249522134 17.2458925471476441   F   F   F
  6.8766134470391735  0.7940429249522134 17.2458925471476441   F   F   F
  9.6272588258548453  0.7940429249522134 17.2458925471476441   F   F   F
  0.0000000000000000  3.1761716998088536 17.2458925471476441   F   F   F
  2.7506453788156695  3.1761716998088536 17.2458925471476441   F   F   F
  5.5012907576313390  3.1761716998088536 17.2458925471476441   F   F   F
  8.2519361364470107  3.1761716998088536 17.2458925471476441   F   F   F
  1.3753226894078348  5.5583004746654945 17.2458925471476441   F   F   F
  4.1259680682235054  5.5583004746654945 17.2458925471476441   F   F   F
  6.8766134470391735  5.5583004746654945 17.2458925471476441   F   F   F
  9.6272588258548453  5.5583004746654945 17.2458925471476441   F   F   F
  0.0000000000000000  7.9404292495221354 17.2458925471476441   F   F   F
  2.7506453788156695  7.9404292495221354 17.2458925471476441   F   F   F
  5.5012907576313390  7.9404292495221354 17.2458925471476441   F   F   F
  8.2519361364470107  7.9404292495221354 17.2458925471476441   F   F   F
  0.0000228370334401  1.5882067070874659 19.5299733081312397   T   T   T
  2.7504330207661174  1.5881413688057253 19.5303221592091738   T   T   T
  5.5012839525538144  1.5876755999170722 19.5310409898450388   T   T   T
  8.2521418931861952  1.5881324234169625 19.5303599770584846   T   T   T
  1.3752734248083580  3.9700695120929161 19.5301762199279310   T   T   T
  4.1262774770531037  3.9705364729862374 19.5313273964607923   T   T   T
  6.8762787090256330  3.9705526832452356 19.5314171438030968   T   T   T
  9.6272972042870393  3.9700954334759944 19.5302088552899278   T   T   T
 11.0025789728446988  6.3523473980247047 19.5300953331254874   T   T   T
  2.7506381431260793  6.3523108242186455 19.5314354313474006   T   T   T
  5.5013288827284628  6.3516681125518213 19.5337193237211970   T   T   T
  8.2519410336403443  6.3523097573308114 19.5315403715806504   T   T   T
  1.3751632109789120  8.7347425391781730 19.5302627475390054   T   T   T
  4.1263602196281255  8.7346494628445992 19.5324727813074155   T   T   T
  6.8763033563138807  8.7346409778689900 19.5323536036341316   T   T   T
  9.6273886123071044  8.7347513178870155 19.5303807435638532   T   T   T
 11.0025705377362844  9.5283405841572293 21.8388046837302738   T   T   T
  2.7503815703634924  9.5277292398730449 21.8387365023798381   T   T   T
  5.5013032559025312  0.0004142188832278 21.8380077892137656   T   T   T
  8.2522693995030050  9.5277617536300188 21.8385462874757827   T   T   T
  1.3751683945179365  2.3822448145946771 21.8389702300316948   T   T   T
  4.1259097049730613  2.3820043675426876 21.8388441060655438   T   T   T
  6.8767255247195891  2.3819759838285144 21.8388170780517008   T   T   T
  9.6274190251885887  2.3822294555188397 21.8389402713546410   T   T   T
 11.0025319468620193  4.7642967737299360 21.8389002230093539   T   T   T
  2.7499732752605754  4.7649369345312778 21.8386430492114059   T   T   T
  5.5012668775201350  4.7630159319423973 21.8376246945041466   T   T   T
  8.2527354775752411  4.7648445137469775 21.8385133432466354   T   T   T
  1.3766820048592621  7.1461652448065065 21.8401868825597916   T   T   T
  4.1247621454123031  7.1469939018100535 21.8348488715516673   T   T   T
  6.8777810732025868  7.1470350891360948 21.8342746728330113   T   T   T
  9.6260586334359317  7.1461534784549068 21.8401873114620564   T   T   T
  5.5916369124276022  8.1519873033949004 25.0425653527636349   T   T   T
  5.5380476563098862  5.7989841417321557 25.0134542910487738   T   T   T
  5.5650869976648867  6.9759558815062928 24.9998743182383301   T   T   T
