CH3OH_Pd111
 1.0000000000000000
     8.2519361364470107    0.0000000000000000    0.0000000000000000
     4.1259680682235054    7.1463863245699208    0.0000000000000000
     0.0000000000000000    0.0000000000000000   36.7376776414429358
 Pd  C   O   H  
  36   1   1   4
Selective dynamics
Cartesian
  0.0000000000000000  0.0000000000000000 15.0000000000000000   F   F   F
  2.7506453788156700  0.0000000000000000 15.0000000000000000   F   F   F
  5.5012907576313399  0.0000000000000000 15.0000000000000000   F   F   F
  1.3753226894078350  2.3821287748566400 15.0000000000000000   F   F   F
  4.1259680682235054  2.3821287748566400 15.0000000000000000   F   F   F
  6.8766134470391753  2.3821287748566400 15.0000000000000000   F   F   F
  2.7506453788156700  4.7642575497132800 15.0000000000000000   F   F   F
  5.5012907576313399  4.7642575497132800 15.0000000000000000   F   F   F
  8.2519361364470107  4.7642575497132800 15.0000000000000000   F   F   F
  1.3753226894078350  0.7940429249522137 17.2458925471476441   F   F   F
  4.1259680682235045  0.7940429249522137 17.2458925471476441   F   F   F
  6.8766134470391744  0.7940429249522137 17.2458925471476441   F   F   F
  2.7506453788156700  3.1761716998088549 17.2458925471476441   F   F   F
  5.5012907576313399  3.1761716998088549 17.2458925471476441   F   F   F
  8.2519361364470090  3.1761716998088549 17.2458925471476441   F   F   F
  4.1259680682235054  5.5583004746654945 17.2458925471476441   F   F   F
  6.8766134470391753  5.5583004746654945 17.2458925471476441   F   F   F
  9.6272588258548453  5.5583004746654945 17.2458925471476441   F   F   F
  8.2576835311468901  1.5900296969361705 19.5445918767283260   T   T   T
  2.7456313474638030  1.5911733787598032 19.5415807636326413   T   T   T
  5.5031410416857636  1.5856893079328813 19.5217753327793346   T   T   T
  9.6279168250728446  3.9601570852408225 19.5459208395498081   T   T   T
  4.1282272055045919  3.9724697598920353 19.5245201206894876   T   T   T
  6.8766859327311787  3.9697060090655243 19.5281980193931943   T   T   T
 11.0003714600887008  6.3531499690717110 19.5202331918826140   T   T   T
  5.5008109546657007  6.3526934694395143 19.5284154525453744   T   T   T
  8.2541035522335502  6.3501069894165445 19.5224919916116413   T   T   T
  4.1230441249296454  7.1387800076999062 21.8340329834554474   T   T   T
  6.8816978226902865  7.1388336403492918 21.8214961800083174   T   T   T
  9.6283871114428372  7.1460937456455698 21.8429488361091941   T   T   T
  9.6348656419948266  2.3987807813213977 21.8618425028727650   T   T   T
  4.1392981227773413  2.3835991784001385 21.8118278029543688   T   T   T
  6.8682416368793726  2.3799851860065560 21.8292201045332241   T   T   T
 11.0114798640360263  4.7811075895390012 21.8222745567679652   T   T   T
  5.4995881420926862  4.7647592453726091 21.8392757185749353   T   T   T
  8.2462614717169487  4.7753890541690298 21.8305890900708341   T   T   T
  2.4867363483099227  2.7738232311195818 24.8360158192376268   T   T   T
  1.3496214311500401  2.2392313119444247 24.1217706962320868   T   T   T
  2.3412440519731756  2.6345643306368758 25.9147420872101364   T   T   T
  1.3565576871737575  1.2585990492954189 24.1556567959129254   T   T   T
  3.4300648970666163  2.2907574852117789 24.5289220904599894   T   T   T
  2.5351519634087696  3.8467500439519124 24.6139562410991921   T   T   T
