N2_Ag100
 1.0000000000000000
     8.6762002051589384    0.0000000000000000    0.0000000000000000
     0.0000000000000000    8.6762002051589384    0.0000000000000000
     0.0000000000000000    0.0000000000000000   36.1349999999999980
 Ag  N  
  36   2
Selective dynamics
Cartesian
  1.4460333675264894  1.4460333675264894 15.0000000000000000   F   F   F
  4.3381001025794692  1.4460333675264894 15.0000000000000000   F   F   F
  7.2301668376324475  1.4460333675264894 15.0000000000000000   F   F   F
  1.4460333675264894  4.3381001025794692 15.0000000000000000   F   F   F
  4.3381001025794692  4.3381001025794692 15.0000000000000000   F   F   F
  7.2301668376324475  4.3381001025794692 15.0000000000000000   F   F   F
  1.4460333675264894  7.2301668376324475 15.0000000000000000   F   F   F
  4.3381001025794692  7.2301668376324475 15.0000000000000000   F   F   F
  7.2301668376324475  7.2301668376324475 15.0000000000000000   F   F   F
  0.0000000000000000  0.0000000000000000 17.0450000000000017   F   F   F
  2.8920667350529787  0.0000000000000000 17.0450000000000017   F   F   F
  5.7841334701059575  0.0000000000000000 17.0450000000000017   F   F   F
  0.0000000000000000  2.8920667350529787 17.0450000000000017   F   F   F
  2.8920667350529787  2.8920667350529787 17.0450000000000017   F   F   F
  5.7841334701059575  2.8920667350529787 17.0450000000000017   F   F   F
  0.0000000000000000  5.7841334701059575 17.0450000000000017   F   F   F
  2.8920667350529787  5.7841334701059575 17.0450000000000017   F   F   F
  5.7841334701059575  5.7841334701059575 17.0450000000000017   F   F   F
  1.4460576818728095  1.4460299316282044 19.1713791032621934   T   T   T
  4.3380776757495720  1.4460351801241276 19.1713731238150196   T   T   T
  7.2301711785972449  1.4460366536916016 19.1713676813957044   T   T   T
  1.4460190663167074  4.3380876576695986 19.1713221721758273   T   T   T
  4.3381101441690602  4.3380799228057869 19.1713525338340318   T   T   T
  7.2301638505592676  4.3381247987916316 19.1713793522911011   T   T   T
  1.4460141077070550  7.2301765749452391 19.1713525551233417   T   T   T
  4.3381122931012079  7.2301797683962015 19.1713178786252207   T   T   T
  7.2301684917907085  7.2301447418229277 19.1713746911202101   T   T   T
  0.0000188495322707  8.6761644507477715 21.2503236143525207   T   T   T
  2.8920720492707646  8.6761573827815361 21.2503234337494433   T   T   T
  5.7841199873637139  8.6761856652868410 21.2503270079229409   T   T   T
  0.0000948864323166  2.8921614296061513 21.2504404556307307   T   T   T
  2.8920540956413303  2.8920971982939458 21.2502379953826974   T   T   T
  5.7840970984764102  2.8920876393695143 21.2503280547034841   T   T   T
  0.0000294089384503  5.7841209183419924 21.2502255024692346   T   T   T
  2.8920362117159923  5.7841084353650478 21.2503917834377241   T   T   T
  5.7840983730931725  5.7841396399590712 21.2503176078244671   T   T   T
  3.0206651056955165  5.1681920557152168 25.5235944689578247   T   T   T
  2.2161937819373159  5.9362222870201107 25.5166980909135575   T   T   T
