CH3CH2OH_Ag111
 1.0000000000000000
    11.5682669402119185    0.0000000000000000    0.0000000000000000
     0.0000000000000000   10.0184130479831968    0.0000000000000000
     0.0000000000000000    0.0000000000000000   37.0840878029567094
 Ag  C   O   H  
  64   2   1   6
Selective dynamics
Cartesian
  0.0000000000000000  0.0000000000000000 14.9999999999999982   F   F   F
  2.8920667350529796  0.0000000000000000 14.9999999999999982   F   F   F
  5.7841334701059592  0.0000000000000000 14.9999999999999982   F   F   F
  8.6762002051589384  0.0000000000000000 14.9999999999999982   F   F   F
  1.4460333675264898  2.5046032619957992 14.9999999999999982   F   F   F
  4.3381001025794692  2.5046032619957992 14.9999999999999982   F   F   F
  7.2301668376324493  2.5046032619957992 14.9999999999999982   F   F   F
 10.1222335726854293  2.5046032619957992 14.9999999999999982   F   F   F
  0.0000000000000000  5.0092065239915984 14.9999999999999982   F   F   F
  2.8920667350529796  5.0092065239915984 14.9999999999999982   F   F   F
  5.7841334701059592  5.0092065239915984 14.9999999999999982   F   F   F
  8.6762002051589384  5.0092065239915984 14.9999999999999982   F   F   F
  1.4460333675264898  7.5138097859873980 14.9999999999999982   F   F   F
  4.3381001025794692  7.5138097859873980 14.9999999999999982   F   F   F
  7.2301668376324493  7.5138097859873980 14.9999999999999982   F   F   F
 10.1222335726854293  7.5138097859873980 14.9999999999999982   F   F   F
  1.4460333675264898  0.8348677539985997 17.3613626009855686   F   F   F
  4.3381001025794692  0.8348677539985997 17.3613626009855686   F   F   F
  7.2301668376324493  0.8348677539985997 17.3613626009855686   F   F   F
 10.1222335726854293  0.8348677539985997 17.3613626009855686   F   F   F
  0.0000000000000000  3.3394710159943988 17.3613626009855686   F   F   F
  2.8920667350529796  3.3394710159943988 17.3613626009855686   F   F   F
  5.7841334701059592  3.3394710159943988 17.3613626009855686   F   F   F
  8.6762002051589384  3.3394710159943988 17.3613626009855686   F   F   F
  1.4460333675264898  5.8440742779901989 17.3613626009855686   F   F   F
  4.3381001025794692  5.8440742779901989 17.3613626009855686   F   F   F
  7.2301668376324493  5.8440742779901989 17.3613626009855686   F   F   F
 10.1222335726854293  5.8440742779901989 17.3613626009855686   F   F   F
  0.0000000000000000  8.3486775399859976 17.3613626009855686   F   F   F
  2.8920667350529796  8.3486775399859976 17.3613626009855686   F   F   F
  5.7841334701059592  8.3486775399859976 17.3613626009855686   F   F   F
  8.6762002051589384  8.3486775399859976 17.3613626009855686   F   F   F
 11.5660496915073487  1.6674190938323774 19.7593659777809485   T   T   T
  2.8979862504459497  1.6722581959957514 19.7790712945426357   T   T   T
  5.7788889513928723  1.6728296777524487 19.7789470182778579   T   T   T
  8.6758022751865624  1.6683775213000382 19.7631764573818813   T   T   T
  1.4457794499688474  4.1762349908177079 19.7612329853994346   T   T   T
  4.3377413168726902  4.1690441935739209 19.7803538261848857   T   T   T
  7.2311747018855179  4.1747497113017706 19.7633859324647254   T   T   T
 10.1228236664586220  4.1741458297839094 19.7670087577371767   T   T   T
 11.5681858398850501  6.6791216771462132 19.7665937704220624   T   T   T
  2.8929752004790976  6.6794707673296303 19.7640047875504159   T   T   T
  5.7835229214685633  6.6800370239465732 19.7628506878288412   T   T   T
  8.6763440453568563  6.6787891050291242 19.7662594299517167   T   T   T
  1.4453339496918844  9.1844591982524211 19.7642078125820184   T   T   T
  4.3374431406483893  9.1840117607302538 19.7653781822026495   T   T   T
  7.2314471171699237  9.1840241375744380 19.7627181501590456   T   T   T
 10.1220583904936223  9.1827650108035250 19.7668411348218811   T   T   T
  0.0001554945509993  0.0003337822472759 22.1870461196820727   T   T   T
  2.8895912553798961 10.0146229311869170 22.1816989670758389   T   T   T
  5.7879870180635145 10.0115723515675494 22.1751820397051134   T   T   T
  8.6770758688273446 10.0181195936004581 22.1862294521451382   T   T   T
  1.4347388041140181  2.5056023356648698 22.1629307814586838   T   T   T
  4.3449347410061678  2.5050227473170827 22.2194935627492285   T   T   T
  7.2365705190713028  2.5051276295111959 22.1743623081937251   T   T   T
 10.1200472818870963  2.5042697859231984 22.1879087537263509   T   T   T
 11.5678765633493317  5.0094113879393882 22.1888397166019757   T   T   T
  2.8878394825998419  5.0132505790137243 22.1798024855970688   T   T   T
  5.7891585718035738  5.0157756566412353 22.1731521005367647   T   T   T
  8.6780200856658691  5.0098923522126579 22.1864791236737453   T   T   T
  1.4439424895498190  7.5141673774231750 22.1864582344785326   T   T   T
  4.3375502741424405  7.5130995930088789 22.1843897857080030   T   T   T
  7.2332754418433876  7.5140041945796066 22.1865711428088694   T   T   T
 10.1225970608525913  7.5139353669218405 22.1858180315758666   T   T   T
  5.7790089094358414  2.5447383253898170 26.3954128706874194   T   T   T
  4.2768953395672318  2.6244089851632930 26.3674608505933854   T   T   T
  3.8124017441763565  2.5443415644553293 24.9955101357377174   T   T   T
  6.1333431462988210  1.6107027109060519 25.9470786525363231   T   T   T
  6.2292650142781554  3.3821145670040611 25.8514189722970329   T   T   T
  6.1285665594847991  2.5805998014389213 27.4361188454131693   T   T   T
  3.9263092439580181  3.5655996280058644 26.8288574275720357   T   T   T
  3.8300037351270024  1.8026037215762638 26.9546916301970398   T   T   T
  2.8391236326055491  2.5948167934280177 24.9870272267135185   T   T   T
