N2_Rh100
 1.0000000000000000
     8.0673812665573212    0.0000000000000000    0.0000000000000000
     0.0000000000000000    8.0673812665573212    0.0000000000000000
     0.0000000000000000    0.0000000000000000   35.7044999999999959
 Rh  N  
  36   2
Selective dynamics
Cartesian
  1.3445635444262201  1.3445635444262201 14.9999999999999964   F   F   F
  4.0336906332786597  1.3445635444262201 14.9999999999999964   F   F   F
  6.7228177221311043  1.3445635444262201 14.9999999999999964   F   F   F
  1.3445635444262201  4.0336906332786597 14.9999999999999964   F   F   F
  4.0336906332786597  4.0336906332786597 14.9999999999999964   F   F   F
  6.7228177221311043  4.0336906332786597 14.9999999999999964   F   F   F
  1.3445635444262201  6.7228177221311043 14.9999999999999964   F   F   F
  4.0336906332786597  6.7228177221311043 14.9999999999999964   F   F   F
  6.7228177221311043  6.7228177221311043 14.9999999999999964   F   F   F
  0.0000000000000000  0.0000000000000000 16.9014999999999986   F   F   F
  2.6891270888524401  0.0000000000000000 16.9014999999999986   F   F   F
  5.3782541777048802  0.0000000000000000 16.9014999999999986   F   F   F
  0.0000000000000000  2.6891270888524401 16.9014999999999986   F   F   F
  2.6891270888524401  2.6891270888524401 16.9014999999999986   F   F   F
  5.3782541777048802  2.6891270888524401 16.9014999999999986   F   F   F
  0.0000000000000000  5.3782541777048802 16.9014999999999986   F   F   F
  2.6891270888524401  5.3782541777048802 16.9014999999999986   F   F   F
  5.3782541777048802  5.3782541777048802 16.9014999999999986   F   F   F
  1.3445654656167525  1.3455572094002457 18.8372580781546333   T   T   T
  4.0414579920036369  1.3521620591376466 18.8476990657344672   T   T   T
  6.7150215950539627  1.3523543046112485 18.8480199855242674   T   T   T
  1.3445654570698466  4.0326420832978744 18.8372317121511266   T   T   T
  4.0412695462236483  4.0261063433749911 18.8473741880864303   T   T   T
  6.7152123511618980  4.0259165967964003 18.8476925873754197   T   T   T
  1.3445181870062284  6.7228513767265143 18.8416761015838716   T   T   T
  4.0347282314170645  6.7228080365404743 18.8372297350795215   T   T   T
  6.7218130017802640  6.7228080468683737 18.8372601648581295   T   T   T
  8.0641113110843552  0.0032520752720736 20.6882442861256450   T   T   T
  2.6924197463288033  0.0032170614371242 20.6881763335071049   T   T   T
  5.3782264643582707  8.0517796274774707 20.6906586530233341   T   T   T
  0.0156037622215395  2.6891334998295906 20.6906584849302320   T   T   T
  2.6738938829624703  2.6891333706698601 20.6903102645377928   T   T   T
  5.3782839778554674  2.6891376456448133 20.8216933989902202   T   T   T
  8.0641429971417882  5.3749401638756815 20.6881833631471821   T   T   T
  2.6923896212646414  5.3749737000290452 20.6881152844762326   T   T   T
  5.3782264670246800  5.3934893040691483 20.6903106896351332   T   T   T
  5.3696784095783370  2.6969111062209863 23.8668007097940986   T   T   T
  5.3727036194019728  2.6942962219168836 22.7354831011866203   T   T   T
