NH3_Pt100
 1.0000000000000000
     8.3155757467537992    0.0000000000000000    0.0000000000000000
     0.0000000000000000    8.3155757467537992    0.0000000000000000
     0.0000000000000000    0.0000000000000000   35.8800000000000026
 Pt  N   H  
  36   1   3
Selective dynamics
Cartesian
  1.3859292911256331  1.3859292911256331 15.0000000000000018   F   F   F
  4.1577878733768996  1.3859292911256331 15.0000000000000018   F   F   F
  6.9296464556281654  1.3859292911256331 15.0000000000000018   F   F   F
  1.3859292911256331  4.1577878733768996 15.0000000000000018   F   F   F
  4.1577878733768996  4.1577878733768996 15.0000000000000018   F   F   F
  6.9296464556281654  4.1577878733768996 15.0000000000000018   F   F   F
  1.3859292911256331  6.9296464556281654 15.0000000000000018   F   F   F
  4.1577878733768996  6.9296464556281654 15.0000000000000018   F   F   F
  6.9296464556281654  6.9296464556281654 15.0000000000000018   F   F   F
  0.0000000000000000  0.0000000000000000 16.9600000000000009   F   F   F
  2.7718585822512662  0.0000000000000000 16.9600000000000009   F   F   F
  5.5437171645025325  0.0000000000000000 16.9600000000000009   F   F   F
  0.0000000000000000  2.7718585822512662 16.9600000000000009   F   F   F
  2.7718585822512662  2.7718585822512662 16.9600000000000009   F   F   F
  5.5437171645025325  2.7718585822512662 16.9600000000000009   F   F   F
  0.0000000000000000  5.5437171645025325 16.9600000000000009   F   F   F
  2.7718585822512662  5.5437171645025325 16.9600000000000009   F   F   F
  5.5437171645025325  5.5437171645025325 16.9600000000000009   F   F   F
  1.3928629066201053  1.3959553515715755 18.9588004038129121   T   T   T
  4.1461847928249416  1.3965039449959158 18.9634494357193013   T   T   T
  6.9281772263439541  1.3829129200842447 18.9459333633389768   T   T   T
  1.3933682803363932  4.1489101802465065 18.9584899885544047   T   T   T
  4.1454912352401063  4.1481855654894373 18.9632981974123211   T   T   T
  6.9280814085969000  4.1602721847803519 18.9458616865449621   T   T   T
  1.3843456025725289  6.9297462831709602 18.9458919056482564   T   T   T
  4.1622256649253346  6.9296295560504104 18.9451235903471442   T   T   T
  6.9318649756083932  6.9290809437684757 18.9599908642377351   T   T   T
  0.0101750435098422  0.0079182223574160 20.9404064852657861   T   T   T
  2.7712325682121728  8.2996197325515855 20.9316519919290123   T   T   T
  5.5377863363211191  0.0073266451086397 20.9382241569466103   T   T   T
  8.2904555301719256  2.7723078420056519 20.9331595466003932   T   T   T
  2.7641949513639279  2.7790805132399412 21.0280717190371256   T   T   T
  5.5576163071019495  2.7723217840785295 20.9362370163279046   T   T   T
  0.0101712602591958  5.5350272320204450 20.9411730407773007   T   T   T
  2.7711525316572079  5.5672611050509095 20.9353360939965079   T   T   T
  5.5378443885098152  5.5356304631884985 20.9391036055375004   T   T   T
  2.7351281845249558  2.7595098697816209 23.1168055325857686   T   T   T
  2.3131836570497954  1.8785633874101846 23.4279250187818064   T   T   T
  3.7006708016055079  2.8320968941446596 23.4547202289668419   T   T   T
  2.1802235952203293  3.5575997041737533 23.4408458344865025   T   T   T
