CH3_Pd100
 1.0000000000000000
     8.2519361364470107    0.0000000000000000    0.0000000000000000
     0.0000000000000000    8.2519361364470107    0.0000000000000000
     0.0000000000000000    0.0000000000000000   35.8350000000000009
 Pd  C   H  
  36   1   3
Selective dynamics
Cartesian
  1.3753226894078350  1.3753226894078350 15.0000000000000000   F   F   F
  4.1259680682235054  1.3753226894078350 15.0000000000000000   F   F   F
  6.8766134470391780  1.3753226894078350 15.0000000000000000   F   F   F
  1.3753226894078350  4.1259680682235054 15.0000000000000000   F   F   F
  4.1259680682235054  4.1259680682235054 15.0000000000000000   F   F   F
  6.8766134470391780  4.1259680682235054 15.0000000000000000   F   F   F
  1.3753226894078350  6.8766134470391780 15.0000000000000000   F   F   F
  4.1259680682235054  6.8766134470391780 15.0000000000000000   F   F   F
  6.8766134470391780  6.8766134470391780 15.0000000000000000   F   F   F
  0.0000000000000000  0.0000000000000000 16.9450000000000003   F   F   F
  2.7506453788156700  0.0000000000000000 16.9450000000000003   F   F   F
  5.5012907576313399  0.0000000000000000 16.9450000000000003   F   F   F
  0.0000000000000000  2.7506453788156700 16.9450000000000003   F   F   F
  2.7506453788156700  2.7506453788156700 16.9450000000000003   F   F   F
  5.5012907576313399  2.7506453788156700 16.9450000000000003   F   F   F
  0.0000000000000000  5.5012907576313399 16.9450000000000003   F   F   F
  2.7506453788156700  5.5012907576313399 16.9450000000000003   F   F   F
  5.5012907576313399  5.5012907576313399 16.9450000000000003   F   F   F
  1.3753459818818987  1.3745685713311855 18.9381510867162390   T   T   T
  4.1231262205067329  1.3754923751273376 18.9370325937322050   T   T   T
  6.8756711369696042  1.3767401167918669 18.9414367442082714   T   T   T
  1.3767692361014017  4.1282774523658192 18.9417102176838590   T   T   T
  4.1234375873258369  4.1280253438228600 18.9414632334187054   T   T   T
  6.8757371019832778  4.1291489222755322 18.9366506944604787   T   T   T
  1.3768106568622365  6.8747357305733177 18.9434467133149980   T   T   T
  4.1230535187521689  6.8750219976277904 18.9414401518697169   T   T   T
  6.8765779141281316  6.8775097727721484 18.9379700538558815   T   T   T
  0.0020414657460408  8.2509076810373188 20.9227303792548156   T   T   T
  2.7499478958668102  8.2443332113294172 20.9216204709532860   T   T   T
  5.4946094275580339  0.0020908726062377 20.9187515153287009   T   T   T
  8.2507668198947854  2.7579888094839795 20.9181076121360690   T   T   T
  2.7470357362869549  2.7518420799301819 20.9159070538187351   T   T   T
  5.4953128425472046  2.7578345246583607 20.9182685577385890   T   T   T
  0.0054395585888999  5.5025101253802919 20.9191963788818462   T   T   T
  2.7546174016688156  5.4974924413252806 21.0103903663322633   T   T   T
  5.4984857028468479  5.5060083433044573 20.9154532580675827   T   T   T
  2.9733989962699727  5.2040619473001888 23.0102870605683663   T   T   T
  3.7820824831032263  4.4857647126026494 23.1950414931540827   T   T   T
  2.0027195936801441  4.8282650871240707 23.3584149061509123   T   T   T
  3.2072671934981374  6.1987995986589475 23.4120568101000401   T   T   T
