CH3CH2OH_Au110
 1.0000000000000000
    16.3200000000000003    0.0000000000000000    0.0000000000000000
     0.0000000000000000   11.5399826689644573    0.0000000000000000
     0.0000000000000000    0.0000000000000000   34.3274935008616708
 Au  C   O   H  
  64   2   1   6
Selective dynamics
Cartesian
  2.0400000000000000  1.4424978336205572 14.9999999999999964   F   F   F
  6.1200000000000001  1.4424978336205572 14.9999999999999964   F   F   F
 10.1999999999999922  1.4424978336205572 14.9999999999999964   F   F   F
 14.2800000000000011  1.4424978336205572 14.9999999999999964   F   F   F
  2.0400000000000000  4.3274935008616717 14.9999999999999964   F   F   F
  6.1200000000000001  4.3274935008616717 14.9999999999999964   F   F   F
 10.1999999999999922  4.3274935008616717 14.9999999999999964   F   F   F
 14.2800000000000011  4.3274935008616717 14.9999999999999964   F   F   F
  2.0400000000000000  7.2124891681027856 14.9999999999999964   F   F   F
  6.1200000000000001  7.2124891681027856 14.9999999999999964   F   F   F
 10.1999999999999922  7.2124891681027856 14.9999999999999964   F   F   F
 14.2800000000000011  7.2124891681027856 14.9999999999999964   F   F   F
  2.0400000000000000 10.0974848353439004 14.9999999999999964   F   F   F
  6.1200000000000001 10.0974848353439004 14.9999999999999964   F   F   F
 10.1999999999999922 10.0974848353439004 14.9999999999999964   F   F   F
 14.2800000000000011 10.0974848353439004 14.9999999999999964   F   F   F
  0.0000000000000000  0.0000000000000000 16.4424978336205569   F   F   F
  4.0800000000000001  0.0000000000000000 16.4424978336205569   F   F   F
  8.1600000000000001  0.0000000000000000 16.4424978336205569   F   F   F
 12.2400000000000002  0.0000000000000000 16.4424978336205569   F   F   F
  0.0000000000000000  2.8849956672411143 16.4424978336205569   F   F   F
  4.0800000000000001  2.8849956672411143 16.4424978336205569   F   F   F
  8.1600000000000001  2.8849956672411143 16.4424978336205569   F   F   F
 12.2400000000000002  2.8849956672411143 16.4424978336205569   F   F   F
  0.0000000000000000  5.7699913344822287 16.4424978336205569   F   F   F
  4.0800000000000001  5.7699913344822287 16.4424978336205569   F   F   F
  8.1600000000000001  5.7699913344822287 16.4424978336205569   F   F   F
 12.2400000000000002  5.7699913344822287 16.4424978336205569   F   F   F
  0.0000000000000000  8.6549870017233435 16.4424978336205569   F   F   F
  4.0800000000000001  8.6549870017233435 16.4424978336205569   F   F   F
  8.1600000000000001  8.6549870017233435 16.4424978336205569   F   F   F
 12.2400000000000002  8.6549870017233435 16.4424978336205569   F   F   F
  2.0327904128555372  1.4416080638868842 18.0598470391486288   T   T   T
  6.1294290867367938  1.4414740003844078 18.0628919808588471   T   T   T
 10.1982516867901989  1.4436764285317250 18.0686267653415165   T   T   T
 14.2799493531379742  1.4427977683054789 18.0675166314094824   T   T   T
  2.0463340645069779  4.3281913474752276 18.0749668197048869   T   T   T
  6.1147981331018917  4.3285645518983129 18.0622837187770955   T   T   T
 10.1989973296467955  4.3285496945715938 18.0668715855095954   T   T   T
 14.2796158622366995  4.3278664424149706 18.0666777342312379   T   T   T
  2.0434695096278146  7.2150223446056305 18.0747714856515138   T   T   T
  6.1130753736724177  7.2112935595274044 18.0612922860244076   T   T   T
 10.1995293385642558  7.2111465763344347 18.0671585573979065   T   T   T
 14.2794969688621762  7.2125590174377390 18.0663871268587179   T   T   T
  2.0311606642030076 10.1013466428227066 18.0627836386464011   T   T   T
  6.1300487705616398 10.0997257244367908 18.0648234760894795   T   T   T
 10.1981659671978946 10.0957060223954134 18.0682076254079043   T   T   T
 14.2806019089649290 10.0966805487346782 18.0676812237790543   T   T   T
 16.3164083811600982  0.0002832157518473 19.4111412156436458   T   T   T
  4.0799809191730718  0.0032836671070360 19.4060213457216690   T   T   T
  8.1636806445771786 11.5393728648454648 19.4109283375753563   T   T   T
 12.2391685526724814 11.5397883758705735 19.4079922975556798   T   T   T
  0.0015034151770503  2.8885243122985971 19.4065259499145526   T   T   T
  4.0841458158785020  2.8594931444214473 19.3996728317171652   T   T   T
  8.1577201003652871  2.8942357122318998 19.4103033336259294   T   T   T
 12.2396084524934476  2.8850866742577699 19.4087531625893277   T   T   T
 16.3186969366869974  5.7711932850954160 19.4079320235349684   T   T   T
  4.0633376647160153  5.7601706782049282 19.4157453855209177   T   T   T
  8.1530517400055551  5.7721814029293181 19.4155369323078730   T   T   T
 12.2395734672174630  5.7698351097198541 19.4082039434780143   T   T   T
  0.0000452929636782  8.6516725702320691 19.4109377600130983   T   T   T
  4.0827812604955671  8.6826721957299551 19.3868417015771612   T   T   T
  8.1583677841592976  8.6460966611838508 19.4118560990487090   T   T   T
 12.2397130396998772  8.6550876413989375 19.4087806963295435   T   T   T
  3.2604745295645796  6.0999313047638060 23.3300400089342155   T   T   T
  4.7519550438881248  6.0059980496549921 23.1566523466878671   T   T   T
  5.0913789193001362  6.3237468327470987 21.7842354936078735   T   T   T
  2.9949490653254691  5.9259378790380302 24.3810237302075983   T   T   T
  2.8988545700286958  7.0931993966811557 23.0441989493210642   T   T   T
  2.7447100515438416  5.3562878437353172 22.7122496448493578   T   T   T
  5.1220738185878369  4.9984442006792404 23.4158420295112464   T   T   T
  5.2713732652368401  6.7195366706131630 23.8191294184599123   T   T   T
  6.0480023300075381  6.1941658934228530 21.6352478567594986   T   T   T
