CH3CHO_Rh110
 1.0000000000000000
    11.4089999999999989    0.0000000000000000    0.0000000000000000
     0.0000000000000000    5.3782541777048811    0.0000000000000000
     0.0000000000000000    0.0000000000000000   34.0336906332786597
 Rh  C   O   H  
  24   2   1   4
Selective dynamics
Cartesian
  1.9014999999999997  1.3445635444262203 15.0000000000000000   F   F   F
  5.7044999999999995  1.3445635444262203 15.0000000000000000   F   F   F
  9.5074999999999985  1.3445635444262203 15.0000000000000000   F   F   F
  1.9014999999999997  4.0336906332786606 15.0000000000000000   F   F   F
  5.7044999999999995  4.0336906332786606 15.0000000000000000   F   F   F
  9.5074999999999985  4.0336906332786606 15.0000000000000000   F   F   F
  0.0000000000000000  0.0000000000000000 16.3445635444262187   F   F   F
  3.8029999999999995  0.0000000000000000 16.3445635444262187   F   F   F
  7.6059999999999990  0.0000000000000000 16.3445635444262187   F   F   F
  0.0000000000000000  2.6891270888524406 16.3445635444262187   F   F   F
  3.8029999999999995  2.6891270888524406 16.3445635444262187   F   F   F
  7.6059999999999990  2.6891270888524406 16.3445635444262187   F   F   F
  1.9095906451872624  1.3335906451709973 17.7124386994844087   T   T   T
  5.6978831744339642  1.3360699808690986 17.7245400374143962   T   T   T
  9.5101378685980595  1.3426545204174369 17.7383542633795770   T   T   T
  1.9071363707131959  4.0249512614078879 17.7370631343017600   T   T   T
  5.7020604021570707  4.0311256995966493 17.7472940421904219   T   T   T
  9.5104060858723294  4.0328402037791440 17.7334393331538998   T   T   T
  0.0141205089658536  5.3775037439889672 18.9820634125041430   T   T   T
  3.8000489429042927  5.3622800548625085 19.0323078620918338   T   T   T
  7.6009027224330348  0.0027345290497376 18.9830063958312785   T   T   T
  0.0067851705264518  2.6843337860571026 18.9818239913188229   T   T   T
  3.8058251683350535  2.7011316818356814 18.9936725718882649   T   T   T
  7.6060980796451076  2.6913777984547536 18.9820762727020451   T   T   T
  4.7713123667754598  0.0683822308762557 21.7668260614410620   T   T   T
  3.7304862250107056  0.8172502165735306 20.9451442852851422   T   T   T
  3.8382164619245085  2.1491513883064948 20.9159145032177562   T   T   T
  4.6332861959324783  4.3596806691635512 21.7319326040168690   T   T   T
  5.7860236008600232  0.3117835156567303 21.4188380063662187   T   T   T
  4.7051716501692429  0.3924992709768722 22.8218510913977468   T   T   T
  2.6803907776043809  0.4602495818173891 21.1118247437610478   T   T   T
