CH3CH2OH_Rh100
 1.0000000000000000
     8.0673812665573212    0.0000000000000000    0.0000000000000000
     0.0000000000000000    8.0673812665573212    0.0000000000000000
     0.0000000000000000    0.0000000000000000   35.7044999999999959
 Rh  C   O   H  
  36   2   1   6
Selective dynamics
Cartesian
  1.3445635444262201  1.3445635444262201 14.9999999999999964   F   F   F
  4.0336906332786597  1.3445635444262201 14.9999999999999964   F   F   F
  6.7228177221311043  1.3445635444262201 14.9999999999999964   F   F   F
  1.3445635444262201  4.0336906332786597 14.9999999999999964   F   F   F
  4.0336906332786597  4.0336906332786597 14.9999999999999964   F   F   F
  6.7228177221311043  4.0336906332786597 14.9999999999999964   F   F   F
  1.3445635444262201  6.7228177221311043 14.9999999999999964   F   F   F
  4.0336906332786597  6.7228177221311043 14.9999999999999964   F   F   F
  6.7228177221311043  6.7228177221311043 14.9999999999999964   F   F   F
  0.0000000000000000  0.0000000000000000 16.9014999999999986   F   F   F
  2.6891270888524401  0.0000000000000000 16.9014999999999986   F   F   F
  5.3782541777048802  0.0000000000000000 16.9014999999999986   F   F   F
  0.0000000000000000  2.6891270888524401 16.9014999999999986   F   F   F
  2.6891270888524401  2.6891270888524401 16.9014999999999986   F   F   F
  5.3782541777048802  2.6891270888524401 16.9014999999999986   F   F   F
  0.0000000000000000  5.3782541777048802 16.9014999999999986   F   F   F
  2.6891270888524401  5.3782541777048802 16.9014999999999986   F   F   F
  5.3782541777048802  5.3782541777048802 16.9014999999999986   F   F   F
  1.3584329129269110  1.3547563392915036 18.8594983501863283   T   T   T
  4.0248221766524752  1.3560674436794999 18.8570770807463468   T   T   T
  6.7218038280238908  1.3414267745835788 18.8368320506131148   T   T   T
  1.3521992740044262  4.0254998767440231 18.8548686777546592   T   T   T
  4.0190452175641003  4.0185492106567420 18.8598877218130205   T   T   T
  6.7212735235113206  4.0366795934419306 18.8361339135175960   T   T   T
  1.3408233901993751  6.7217350055562166 18.8385579372199174   T   T   T
  4.0343105348193404  6.7206687165500609 18.8359659475590568   T   T   T
  6.7209933552064713  6.7210277810604406 18.8429960470838296   T   T   T
  0.0017977347987990  0.0068273640620073 20.6898672153704979   T   T   T
  2.6924701398006730  8.0434531741376922 20.6795614887528814   T   T   T
  5.3735484037337340  0.0036000497386656 20.6883889041799200   T   T   T
  8.0539496175833634  2.6900460759582652 20.6723096406493063   T   T   T
  2.7228023321928401  2.6730923038148746 20.7856622028863924   T   T   T
  5.4010402370168453  2.6924103492990090 20.6896361889523028   T   T   T
  0.0036274312245755  5.3729717487772133 20.6926946199423227   T   T   T
  2.6887118794054499  5.3941673279595896 20.6857023366529695   T   T   T
  5.3709428719715060  5.3734713733616433 20.6940193152477576   T   T   T
  4.1740241146050368  1.5745814663513882 24.0045839182611651   T   T   T
  2.6878293254193939  1.6558447220781165 23.8124809672942597   T   T   T
  2.3624623026614691  2.7823713228242863 22.9483472433098328   T   T   T
  1.3806635910194276  2.8824514709270019 22.9005417943940586   T   T   T
  2.2855227513257863  0.7346798798353713 23.3465436885469018   T   T   T
  2.1445379214692264  1.8121998409749229 24.7574826067522373   T   T   T
  4.6891416281484064  1.4157622883687269 23.0442963120030733   T   T   T
  4.5615131431658522  2.4932050393416598 24.4578174611844332   T   T   T
  4.4195874363274141  0.7302341057063625 24.6608112349371247   T   T   T
