H2CO_Pd111
 1.0000000000000000
     8.2519361364470107    0.0000000000000000    0.0000000000000000
     4.1259680682235054    7.1463863245699208    0.0000000000000000
     0.0000000000000000    0.0000000000000000   36.7376776414429358
 Pd  C   O   H  
  36   1   1   2
Selective dynamics
Cartesian
  0.0000000000000000  0.0000000000000000 15.0000000000000000   F   F   F
  2.7506453788156700  0.0000000000000000 15.0000000000000000   F   F   F
  5.5012907576313399  0.0000000000000000 15.0000000000000000   F   F   F
  1.3753226894078350  2.3821287748566400 15.0000000000000000   F   F   F
  4.1259680682235054  2.3821287748566400 15.0000000000000000   F   F   F
  6.8766134470391753  2.3821287748566400 15.0000000000000000   F   F   F
  2.7506453788156700  4.7642575497132800 15.0000000000000000   F   F   F
  5.5012907576313399  4.7642575497132800 15.0000000000000000   F   F   F
  8.2519361364470107  4.7642575497132800 15.0000000000000000   F   F   F
  1.3753226894078350  0.7940429249522137 17.2458925471476441   F   F   F
  4.1259680682235045  0.7940429249522137 17.2458925471476441   F   F   F
  6.8766134470391744  0.7940429249522137 17.2458925471476441   F   F   F
  2.7506453788156700  3.1761716998088549 17.2458925471476441   F   F   F
  5.5012907576313399  3.1761716998088549 17.2458925471476441   F   F   F
  8.2519361364470090  3.1761716998088549 17.2458925471476441   F   F   F
  4.1259680682235054  5.5583004746654945 17.2458925471476441   F   F   F
  6.8766134470391753  5.5583004746654945 17.2458925471476441   F   F   F
  9.6272588258548453  5.5583004746654945 17.2458925471476441   F   F   F
  8.2536633705074252  1.5860176942945861 19.5238826778200156   T   T   T
  2.7485878395113579  1.5883496298165829 19.5220464412886443   T   T   T
  5.5007545758069138  1.5888308328114560 19.5266660132868992   T   T   T
  9.6307007974417900  3.9669589892720922 19.5226425234223910   T   T   T
  4.1372151579904139  3.9769103952223310 19.5570972057478691   T   T   T
  6.8682591341307182  3.9748981803735921 19.5452624629614213   T   T   T
 11.0024272005913755  6.3516498411614100 19.5288689797085162   T   T   T
  5.5023014829346124  6.3358380481345797 19.5543221917859888   T   T   T
  8.2539563752985607  6.3540475688551554 19.5242757194003751   T   T   T
  8.2509393743315318  0.0053445444826169 21.8265031374671139   T   T   T
  2.7565404255616199  0.0086721789466473 21.8234020500212011   T   T   T
  5.5015374784372746  0.0005361153065606 21.8411627707103655   T   T   T
  1.3763618587766691  2.3815634935200674 21.8471503492379568   T   T   T
  4.1183929081602306  2.3708328711813449 21.8284790129747108   T   T   T
  6.8836799212885840  2.3730019348609659 21.8213984599000312   T   T   T
 10.9949912992021108  4.7650178830675056 21.8362913812288326   T   T   T
  5.5110941680729644  4.7625198643247408 21.9231483655927128   T   T   T
  8.2654554884481186  4.7653636030963895 21.8118015719136054   T   T   T
  6.2524337341093981  5.4533306218946462 24.7439758008151429   T   T   T
  5.6240493828104059  4.6070150622628931 24.1140003181712856   T   T   T
  6.7009939059755359  6.3260886456762568 24.2194360258278891   T   T   T
  6.3600683152443578  5.3404695131835442 25.8335560011492156   T   T   T
