H2S_Rh100
 1.0000000000000000
     8.0673812665573212    0.0000000000000000    0.0000000000000000
     0.0000000000000000    8.0673812665573212    0.0000000000000000
     0.0000000000000000    0.0000000000000000   35.7044999999999959
 Rh  S   H  
  36   1   2
Selective dynamics
Cartesian
  1.3445635444262201  1.3445635444262201 14.9999999999999964   F   F   F
  4.0336906332786597  1.3445635444262201 14.9999999999999964   F   F   F
  6.7228177221311043  1.3445635444262201 14.9999999999999964   F   F   F
  1.3445635444262201  4.0336906332786597 14.9999999999999964   F   F   F
  4.0336906332786597  4.0336906332786597 14.9999999999999964   F   F   F
  6.7228177221311043  4.0336906332786597 14.9999999999999964   F   F   F
  1.3445635444262201  6.7228177221311043 14.9999999999999964   F   F   F
  4.0336906332786597  6.7228177221311043 14.9999999999999964   F   F   F
  6.7228177221311043  6.7228177221311043 14.9999999999999964   F   F   F
  0.0000000000000000  0.0000000000000000 16.9014999999999986   F   F   F
  2.6891270888524401  0.0000000000000000 16.9014999999999986   F   F   F
  5.3782541777048802  0.0000000000000000 16.9014999999999986   F   F   F
  0.0000000000000000  2.6891270888524401 16.9014999999999986   F   F   F
  2.6891270888524401  2.6891270888524401 16.9014999999999986   F   F   F
  5.3782541777048802  2.6891270888524401 16.9014999999999986   F   F   F
  0.0000000000000000  5.3782541777048802 16.9014999999999986   F   F   F
  2.6891270888524401  5.3782541777048802 16.9014999999999986   F   F   F
  5.3782541777048802  5.3782541777048802 16.9014999999999986   F   F   F
  1.3376298239533637  1.3429647931655184 18.8355644371679603   T   T   T
  4.0206162551576909  1.3420992215045953 18.8483437622653156   T   T   T
  6.7098640770305513  1.3478076777794941 18.8361625972824172   T   T   T
  1.3418841916088262  4.0250687913765022 18.8448651670883898   T   T   T
  4.0351906277843073  4.0335455567198304 18.8134894460176376   T   T   T
  6.7205726538214501  4.0337276931520014 18.8497461722339459   T   T   T
  1.3497975027142914  6.7123464027736626 18.8307861494455580   T   T   T
  4.0413058889356801  6.7185428754689926 18.8444512274068785   T   T   T
  6.7224121993200141  6.7173709493610270 18.8401581124816779   T   T   T
  8.0640337114772045  8.0598895893407985 20.6660989866885565   T   T   T
  2.6650697481207781  8.0465848624871885 20.7038869131002485   T   T   T
  5.3844470891282095  0.0066868398299841 20.7072058851365099   T   T   T
  8.0433892175167756  2.6782980994672170 20.6847606737267284   T   T   T
  2.6609171560216449  2.6749814552673050 20.7993664652246508   T   T   T
  5.3711624391546886  2.6895324887716097 20.7476976697299769   T   T   T
  0.0131220507677277  5.3753014612532368 20.6827861048388293   T   T   T
  2.6849195559865295  5.3675544032333136 20.7398152284553134   T   T   T
  5.3936994577286921  5.3836387272694184 20.8043121746596000   T   T   T
  4.0236249272974840  4.0273549514373785 22.0978387886225995   T   T   T
  2.2162298806750766  1.2962602822074922 21.7986374871033775   T   T   T
  5.6322371347895137  6.7819805457839770 21.8615027474667087   T   T   T
