CH3COOH_Pd100
 1.0000000000000000
     8.2519361364470107    0.0000000000000000    0.0000000000000000
     0.0000000000000000    8.2519361364470107    0.0000000000000000
     0.0000000000000000    0.0000000000000000   35.8350000000000009
 Pd  C   O   H  
  36   2   2   4
Selective dynamics
Cartesian
  1.3753226894078350  1.3753226894078350 15.0000000000000000   F   F   F
  4.1259680682235054  1.3753226894078350 15.0000000000000000   F   F   F
  6.8766134470391780  1.3753226894078350 15.0000000000000000   F   F   F
  1.3753226894078350  4.1259680682235054 15.0000000000000000   F   F   F
  4.1259680682235054  4.1259680682235054 15.0000000000000000   F   F   F
  6.8766134470391780  4.1259680682235054 15.0000000000000000   F   F   F
  1.3753226894078350  6.8766134470391780 15.0000000000000000   F   F   F
  4.1259680682235054  6.8766134470391780 15.0000000000000000   F   F   F
  6.8766134470391780  6.8766134470391780 15.0000000000000000   F   F   F
  0.0000000000000000  0.0000000000000000 16.9450000000000003   F   F   F
  2.7506453788156700  0.0000000000000000 16.9450000000000003   F   F   F
  5.5012907576313399  0.0000000000000000 16.9450000000000003   F   F   F
  0.0000000000000000  2.7506453788156700 16.9450000000000003   F   F   F
  2.7506453788156700  2.7506453788156700 16.9450000000000003   F   F   F
  5.5012907576313399  2.7506453788156700 16.9450000000000003   F   F   F
  0.0000000000000000  5.5012907576313399 16.9450000000000003   F   F   F
  2.7506453788156700  5.5012907576313399 16.9450000000000003   F   F   F
  5.5012907576313399  5.5012907576313399 16.9450000000000003   F   F   F
  1.3887538546082225  1.3616040469630755 18.9524732834491019   T   T   T
  4.1150218109283889  1.3640970143936970 18.9528138900440197   T   T   T
  6.8769041838268290  1.3784719202038263 18.9397708138286731   T   T   T
  1.3719649308211181  4.1277105934982732 18.9385543262553782   T   T   T
  4.1279218317126087  4.1274288151293197 18.9375364092950704   T   T   T
  6.8770553766188494  4.1259218907363042 18.9425649322535179   T   T   T
  1.3873808614654026  6.8885914634103180 18.9544734522594425   T   T   T
  4.1185417402091806  6.8842486534673677 18.9500670877868487   T   T   T
  6.8763660803884505  6.8750964178700995 18.9385276272577059   T   T   T
  8.2416761985437290  0.0000033824637858 20.9136501884676100   T   T   T
  2.7402125141397486  0.0179927759729397 21.0464221296256930   T   T   T
  5.5077934728148783  0.0024480027316030 20.9198954247820303   T   T   T
  0.0074645972673116  2.7446456873992355 20.9305382054450924   T   T   T
  2.7482382635395228  2.7626466311923266 20.9101469221741283   T   T   T
  5.4995008336028706  2.7492488809171332 20.9296665774361550   T   T   T
  0.0023204217185437  5.5011335811753197 20.9309894954235105   T   T   T
  2.7487592025077090  5.4954049002370962 20.9208822811805817   T   T   T
  5.5009164995786639  5.5013183527085996 20.9258725606635316   T   T   T
  2.6643094253343533  0.1025747699170545 25.5721360552307360   T   T   T
  2.4565852281202636  0.4274900509114810 24.1311706110888622   T   T   T
  2.9985320128279254  8.0345505371175179 23.2141862667459975   T   T   T
  1.6408844965984795  1.4607801104421703 23.9300120864306756   T   T   T
  3.0034059998398313  0.9939222903069448 26.1093886895329952   T   T   T
  3.3857162298809529  7.5461525865350954 25.6812914787736801   T   T   T
  1.7070901860370640  8.0595896515600494 26.0156428670669122   T   T   T
  1.5717271261111052  1.6189390901305458 22.9417835604061118   T   T   T
