C2H6_Au100
 1.0000000000000000
    11.5399826689644573    0.0000000000000000    0.0000000000000000
     0.0000000000000000   11.5399826689644573    0.0000000000000000
     0.0000000000000000    0.0000000000000000   36.1199999999999974
 Au  C   H  
  64   2   6
Selective dynamics
Cartesian
  1.4424978336205572  1.4424978336205572 14.9999999999999982   F   F   F
  4.3274935008616717  1.4424978336205572 14.9999999999999982   F   F   F
  7.2124891681027856  1.4424978336205572 14.9999999999999982   F   F   F
 10.0974848353439004  1.4424978336205572 14.9999999999999982   F   F   F
  1.4424978336205572  4.3274935008616717 14.9999999999999982   F   F   F
  4.3274935008616717  4.3274935008616717 14.9999999999999982   F   F   F
  7.2124891681027856  4.3274935008616717 14.9999999999999982   F   F   F
 10.0974848353439004  4.3274935008616717 14.9999999999999982   F   F   F
  1.4424978336205572  7.2124891681027856 14.9999999999999982   F   F   F
  4.3274935008616717  7.2124891681027856 14.9999999999999982   F   F   F
  7.2124891681027856  7.2124891681027856 14.9999999999999982   F   F   F
 10.0974848353439004  7.2124891681027856 14.9999999999999982   F   F   F
  1.4424978336205572 10.0974848353439004 14.9999999999999982   F   F   F
  4.3274935008616717 10.0974848353439004 14.9999999999999982   F   F   F
  7.2124891681027856 10.0974848353439004 14.9999999999999982   F   F   F
 10.0974848353439004 10.0974848353439004 14.9999999999999982   F   F   F
  0.0000000000000000  0.0000000000000000 17.0399999999999991   F   F   F
  2.8849956672411143  0.0000000000000000 17.0399999999999991   F   F   F
  5.7699913344822287  0.0000000000000000 17.0399999999999991   F   F   F
  8.6549870017233435  0.0000000000000000 17.0399999999999991   F   F   F
  0.0000000000000000  2.8849956672411143 17.0399999999999991   F   F   F
  2.8849956672411143  2.8849956672411143 17.0399999999999991   F   F   F
  5.7699913344822287  2.8849956672411143 17.0399999999999991   F   F   F
  8.6549870017233435  2.8849956672411143 17.0399999999999991   F   F   F
  0.0000000000000000  5.7699913344822287 17.0399999999999991   F   F   F
  2.8849956672411143  5.7699913344822287 17.0399999999999991   F   F   F
  5.7699913344822287  5.7699913344822287 17.0399999999999991   F   F   F
  8.6549870017233435  5.7699913344822287 17.0399999999999991   F   F   F
  0.0000000000000000  8.6549870017233435 17.0399999999999991   F   F   F
  2.8849956672411143  8.6549870017233435 17.0399999999999991   F   F   F
  5.7699913344822287  8.6549870017233435 17.0399999999999991   F   F   F
  8.6549870017233435  8.6549870017233435 17.0399999999999991   F   F   F
  1.4426459044552236  1.4429739677243272 19.1849619031646768   T   T   T
  4.3275429559403094  1.4430930448519930 19.1845805148813895   T   T   T
  7.2121952225857093  1.4428655248508524 19.1850038653710691   T   T   T
 10.0975133688596230  1.4428732643742308 19.1852049281742367   T   T   T
  1.4427129830008276  4.3273712444154224 19.1854378552874749   T   T   T
  4.3268920879066481  4.3272105025060359 19.1867545668586175   T   T   T
  7.2126472015371039  4.3267007252770719 19.1852733003199454   T   T   T
 10.0979330832402709  4.3276485599363603 19.1844676305373660   T   T   T
  1.4426996401711847  7.2125182124752802 19.1857897580913992   T   T   T
  4.3270345177435070  7.2128462939810420 19.1868545640686037   T   T   T
  7.2125658235751473  7.2133623847531219 19.1852646042271928   T   T   T
 10.0979273566626677  7.2123855318052170 19.1845097293543354   T   T   T
  1.4425426905869760 10.0970451596055000 19.1849777333893137   T   T   T
  4.3277329334554810 10.0968596569594951 19.1845311694484622   T   T   T
  7.2121975161441005 10.0970736127180629 19.1849276282674772   T   T   T
 10.0973436361259097 10.0970788866098466 19.1853136403413451   T   T   T
  0.0003446485339603 11.5399510402216237 21.3081042838715717   T   T   T
  2.8855022388413460 11.5397825856012393 21.3079394500956347   T   T   T
  5.7694810193525425  0.0000578261687164 21.3079754386869098   T   T   T
  8.6546739624942113 11.5399232275011272 21.3081096422295460   T   T   T
  0.0020914108007776  2.8868959852332154 21.3085037597245766   T   T   T
  2.8869787187664722  2.8871415844450312 21.3059480619231820   T   T   T
  5.7671797550166293  2.8871190069419042 21.3076364323957712   T   T   T
  8.6534458713644380  2.8867656476504950 21.3085657885247919   T   T   T
  0.0014025574679115  5.7701265232590870 21.3077997459901134   T   T   T
  2.8858885814477215  5.7700292357062617 21.2985437867672083   T   T   T
  5.7699506973843953  5.7701334439425320 21.2926205164081175   T   T   T
  8.6544862695498281  5.7701276746121088 21.3068976807713355   T   T   T
  0.0020580798897019  8.6532988089245695 21.3078474823467303   T   T   T
  2.8870959514161267  8.6526508049876636 21.3052205211505452   T   T   T
  5.7672437606375686  8.6529095766730872 21.3071724753455456   T   T   T
  8.6530071084400539  8.6529632886447843 21.3090492991699207   T   T   T
  4.9419824589814860  5.8332167530584549 25.0817257464517844   T   T   T
  3.4184346055715116  5.8758433926391200 24.9616382909771417   T   T   T
  5.4261193863508259  5.7442716676048500 24.0954534431770959   T   T   T
  5.3352056595749326  6.7442216743357664 25.5549237198671477   T   T   T
  5.2744957546355584  4.9762188942511951 25.6847101483672340   T   T   T
  2.9396855422236245  5.9554051105492016 25.9494080646601368   T   T   T
  3.0256247520819808  4.9685795505273207 24.4766105989009120   T   T   T
  3.0842223357119471  6.7383991896274669 24.3638748619245717   T   T   T
