CH3OH_Rh110
 1.0000000000000000
    11.4089999999999989    0.0000000000000000    0.0000000000000000
     0.0000000000000000    5.3782541777048811    0.0000000000000000
     0.0000000000000000    0.0000000000000000   34.0336906332786597
 Rh  C   O   H  
  24   1   1   4
Selective dynamics
Cartesian
  1.9014999999999997  1.3445635444262203 15.0000000000000000   F   F   F
  5.7044999999999995  1.3445635444262203 15.0000000000000000   F   F   F
  9.5074999999999985  1.3445635444262203 15.0000000000000000   F   F   F
  1.9014999999999997  4.0336906332786606 15.0000000000000000   F   F   F
  5.7044999999999995  4.0336906332786606 15.0000000000000000   F   F   F
  9.5074999999999985  4.0336906332786606 15.0000000000000000   F   F   F
  0.0000000000000000  0.0000000000000000 16.3445635444262187   F   F   F
  3.8029999999999995  0.0000000000000000 16.3445635444262187   F   F   F
  7.6059999999999990  0.0000000000000000 16.3445635444262187   F   F   F
  0.0000000000000000  2.6891270888524406 16.3445635444262187   F   F   F
  3.8029999999999995  2.6891270888524406 16.3445635444262187   F   F   F
  7.6059999999999990  2.6891270888524406 16.3445635444262187   F   F   F
  1.9006142997981752  1.3448782736946969 17.7266825911843711   T   T   T
  5.7134622413385863  1.3363474492328815 17.7365045245190665   T   T   T
  9.5161332618294914  1.3394346613469856 17.7410146079148561   T   T   T
  1.9014537668592204  4.0239612465559329 17.7237022185738731   T   T   T
  5.7098935944770455  4.0318926230662715 17.7390678866898099   T   T   T
  9.5137594393737146  4.0355445893703106 17.7439672314694405   T   T   T
  0.0178475629815308  5.3763118195160473 18.9924698831117382   T   T   T
  3.7865727671892371  5.3605592327252616 18.9479367686839026   T   T   T
  7.6067776180679108  5.3756413799129454 18.9905100636532609   T   T   T
  0.0154267313248321  2.6879529909064233 18.9909407996543429   T   T   T
  3.7678612671431782  2.6770628027182779 19.0103352680906141   T   T   T
  7.6188074591383970  2.6854618502669449 18.9785687120720006   T   T   T
  4.4114476443790958  3.6146783662849535 21.9442077439079561   T   T   T
  4.7544402317631249  2.5873625858553861 20.9915133310417801   T   T   T
  3.3357839881673037  3.5525340477315011 22.1397049342481758   T   T   T
  5.7106930572275472  2.6805539828293976 20.7371500099459212   T   T   T
  4.9645803039866800  3.4483549669188061 22.8777783247785393   T   T   T
  4.6499225816828815  4.6163576728832378 21.5485874846208461   T   T   T
