CH3OH_Au110
 1.0000000000000000
    16.3200000000000003    0.0000000000000000    0.0000000000000000
     0.0000000000000000   11.5399826689644573    0.0000000000000000
     0.0000000000000000    0.0000000000000000   34.3274935008616708
 Au  C   O   H  
  64   1   1   4
Selective dynamics
Cartesian
  2.0400000000000000  1.4424978336205572 14.9999999999999964   F   F   F
  6.1200000000000001  1.4424978336205572 14.9999999999999964   F   F   F
 10.1999999999999922  1.4424978336205572 14.9999999999999964   F   F   F
 14.2800000000000011  1.4424978336205572 14.9999999999999964   F   F   F
  2.0400000000000000  4.3274935008616717 14.9999999999999964   F   F   F
  6.1200000000000001  4.3274935008616717 14.9999999999999964   F   F   F
 10.1999999999999922  4.3274935008616717 14.9999999999999964   F   F   F
 14.2800000000000011  4.3274935008616717 14.9999999999999964   F   F   F
  2.0400000000000000  7.2124891681027856 14.9999999999999964   F   F   F
  6.1200000000000001  7.2124891681027856 14.9999999999999964   F   F   F
 10.1999999999999922  7.2124891681027856 14.9999999999999964   F   F   F
 14.2800000000000011  7.2124891681027856 14.9999999999999964   F   F   F
  2.0400000000000000 10.0974848353439004 14.9999999999999964   F   F   F
  6.1200000000000001 10.0974848353439004 14.9999999999999964   F   F   F
 10.1999999999999922 10.0974848353439004 14.9999999999999964   F   F   F
 14.2800000000000011 10.0974848353439004 14.9999999999999964   F   F   F
  0.0000000000000000  0.0000000000000000 16.4424978336205569   F   F   F
  4.0800000000000001  0.0000000000000000 16.4424978336205569   F   F   F
  8.1600000000000001  0.0000000000000000 16.4424978336205569   F   F   F
 12.2400000000000002  0.0000000000000000 16.4424978336205569   F   F   F
  0.0000000000000000  2.8849956672411143 16.4424978336205569   F   F   F
  4.0800000000000001  2.8849956672411143 16.4424978336205569   F   F   F
  8.1600000000000001  2.8849956672411143 16.4424978336205569   F   F   F
 12.2400000000000002  2.8849956672411143 16.4424978336205569   F   F   F
  0.0000000000000000  5.7699913344822287 16.4424978336205569   F   F   F
  4.0800000000000001  5.7699913344822287 16.4424978336205569   F   F   F
  8.1600000000000001  5.7699913344822287 16.4424978336205569   F   F   F
 12.2400000000000002  5.7699913344822287 16.4424978336205569   F   F   F
  0.0000000000000000  8.6549870017233435 16.4424978336205569   F   F   F
  4.0800000000000001  8.6549870017233435 16.4424978336205569   F   F   F
  8.1600000000000001  8.6549870017233435 16.4424978336205569   F   F   F
 12.2400000000000002  8.6549870017233435 16.4424978336205569   F   F   F
  2.0396173894770517  1.4426932188114361 18.0671497945736412   T   T   T
  6.1126701615000405  1.4398028274497965 18.0624470355507860   T   T   T
 10.2081659713514270  1.4410777206003160 18.0669894748376230   T   T   T
 14.2776401031711977  1.4435856960621689 18.0686037133524664   T   T   T
  2.0404823190340160  4.3279532062122215 18.0676543473876983   T   T   T
  6.1250255967833738  4.3253163248049233 18.0721208463408303   T   T   T
 10.1944922139316532  4.3305067847895105 18.0587275867564756   T   T   T
 14.2828539585014642  4.3257517351874668 18.0647393558988334   T   T   T
  2.0406153684734551  7.2122710717835030 18.0678489095513335   T   T   T
  6.1267403969636591  7.2103335042250993 18.0734226383806664   T   T   T
 10.1961991609477778  7.2112214499930172 18.0615815558954296   T   T   T
 14.2828976275131456  7.2135178142431231 18.0648449104653821   T   T   T
  2.0397791443586186 10.0970632755225580 18.0675075394364377   T   T   T
  6.1118176407480158 10.0996493227936597 18.0600311271257610   T   T   T
 10.2078747096440008 10.0976851984201090 18.0686163931786048   T   T   T
 14.2779271530995011 10.0964396213565273 18.0685557430285257   T   T   T
 16.3188218602447890 11.5399224891475072 19.4099668749305181   T   T   T
  4.0779195833599839 11.5398403775622214 19.4113649911104957   T   T   T
  8.1603843177997462 11.5391784130487984 19.4107380462913888   T   T   T
 12.2418364549379817  0.0004862390818331 19.4114443053628385   T   T   T
  0.0000075795663435  2.8848184393856124 19.4109171991807017   T   T   T
  4.0811693353183589  2.8868843158540041 19.4091249488547106   T   T   T
  8.1629452528124187  2.8558167483210770 19.3938477030484364   T   T   T
 12.2384347935993478  2.8930419212169891 19.4145692118565840   T   T   T
 16.3191703363705223  5.7700558774120330 19.4095711289339263   T   T   T
  4.0799707603198518  5.7695525178044393 19.4117865023940368   T   T   T
  8.1260623470306523  5.7758834730849236 19.4267673469365114   T   T   T
 12.2488689616879096  5.7685118928557291 19.4098741332447204   T   T   T
 16.3197843962557130  8.6549080463973400 19.4109183141444426   T   T   T
  4.0830028713119058  8.6522197571525226 19.4082994632833987   T   T   T
  8.1587210058171404  8.6852948394304370 19.3951681412961712   T   T   T
 12.2401012988952882  8.6459237858609583 19.4125706280612604   T   T   T
  9.3585947865196975  6.5374864387760416 22.6592853756427353   T   T   T
  9.4359095338528522  5.5620426960674392 21.5939580306792287   T   T   T
  8.3222438641151797  6.5570055581567042 23.0068896697267675   T   T   T
 10.3300742614219665  5.6034347773541882 21.1829234927670420   T   T   T
 10.0060490272695226  6.2433623318178597 23.4974853316922250   T   T   T
  9.6419066255532506  7.5440703200415786 22.3166748261812771   T   T   T
