H2CO_Au111
 1.0000000000000000
     8.6549870017233435    0.0000000000000000    0.0000000000000000
     4.3274935008616717    7.4954386129165247    0.0000000000000000
     0.0000000000000000    0.0000000000000000   37.0667672948810178
 Au  C   O   H  
  36   1   1   2
Selective dynamics
Cartesian
  0.0000000000000000  0.0000000000000000 15.0000000000000000   F   F   F
  2.8849956672411143  0.0000000000000000 15.0000000000000000   F   F   F
  5.7699913344822287  0.0000000000000000 15.0000000000000000   F   F   F
  1.4424978336205572  2.4984795376388416 15.0000000000000000   F   F   F
  4.3274935008616717  2.4984795376388416 15.0000000000000000   F   F   F
  7.2124891681027856  2.4984795376388416 15.0000000000000000   F   F   F
  2.8849956672411143  4.9969590752776831 15.0000000000000000   F   F   F
  5.7699913344822287  4.9969590752776831 15.0000000000000000   F   F   F
  8.6549870017233435  4.9969590752776831 15.0000000000000000   F   F   F
  1.4424978336205572  0.8328265125462805 17.3555890982936738   F   F   F
  4.3274935008616717  0.8328265125462805 17.3555890982936738   F   F   F
  7.2124891681027865  0.8328265125462805 17.3555890982936738   F   F   F
  2.8849956672411143  3.3313060501851219 17.3555890982936738   F   F   F
  5.7699913344822287  3.3313060501851219 17.3555890982936738   F   F   F
  8.6549870017233435  3.3313060501851219 17.3555890982936738   F   F   F
  4.3274935008616717  5.8297855878239639 17.3555890982936738   F   F   F
  7.2124891681027856  5.8297855878239639 17.3555890982936738   F   F   F
 10.0974848353439004  5.8297855878239639 17.3555890982936738   F   F   F
  8.6548221240793382  1.6653687680060101 19.8066911439560478   T   T   T
  2.8858200055225915  1.6660980961053651 19.8100038984701037   T   T   T
  5.7696790154939963  1.6660013975141610 19.8115146993025419   T   T   T
 10.0970041189674085  4.1643876661122645 19.8066394450149375   T   T   T
  4.3278052638706219  4.1636709416491842 19.8097400413338356   T   T   T
  7.2123533693162480  4.1642844259083329 19.8071223596785231   T   T   T
 11.5399058189541304  6.6627015443412905 19.8077916159382355   T   T   T
  5.7697471422077875  6.6624674917587674 19.8066797705038518   T   T   T
  8.6550478350414917  6.6624764157980589 19.8076154822655468   T   T   T
  8.6555567428453912  0.0015342512928262 22.3176197968311456   T   T   T
  7.2124867819808092  7.4932492419725794 22.3069887927791797   T   T   T
 10.0977524673672558  7.4950251493306368 22.3138054781947623   T   T   T
 10.0952169016476301  2.4988337997089198 22.3063670457317187   T   T   T
  4.3281384482924867  2.4983573969212203 22.3079814938345073   T   T   T
  7.2138336054842789  2.4982605050089148 22.3141098376412188   T   T   T
 11.5397110725682026  4.9986527863192389 22.3090766686124837   T   T   T
  5.7696792722109871  4.9968423119155077 22.3147871242584088   T   T   T
  8.6551400971823345  4.9969262253396982 22.3180084549761055   T   T   T
  2.7636329485028779  2.4009023415324982 25.9827224757526700   T   T   T
  3.9261594729064120  2.3818349251474946 25.6336324348034488   T   T   T
  2.5061345649985349  2.3464015172843369 27.0606054159693485   T   T   T
  1.9325747988531217  2.4710198931091742 25.2413401043447969   T   T   T
