CH3CHO_Ir110
 1.0000000000000000
    11.5199999999999996    0.0000000000000000    0.0000000000000000
     0.0000000000000000    5.4305800795126853    0.0000000000000000
     0.0000000000000000    0.0000000000000000   34.0729350596345171
 Ir  C   O   H  
  24   2   1   4
Selective dynamics
Cartesian
  1.9199999999999999  1.3576450198781711 15.0000000000000018   F   F   F
  5.7599999999999989  1.3576450198781711 15.0000000000000018   F   F   F
  9.5999999999999996  1.3576450198781711 15.0000000000000018   F   F   F
  1.9199999999999999  4.0729350596345135 15.0000000000000018   F   F   F
  5.7599999999999989  4.0729350596345135 15.0000000000000018   F   F   F
  9.5999999999999996  4.0729350596345135 15.0000000000000018   F   F   F
  0.0000000000000000  0.0000000000000000 16.3576450198781735   F   F   F
  3.8399999999999999  0.0000000000000000 16.3576450198781735   F   F   F
  7.6799999999999997  0.0000000000000000 16.3576450198781735   F   F   F
  0.0000000000000000  2.7152900397563422 16.3576450198781735   F   F   F
  3.8399999999999999  2.7152900397563422 16.3576450198781735   F   F   F
  7.6799999999999997  2.7152900397563422 16.3576450198781735   F   F   F
  1.9144012941251696  1.3611505789750955 17.7723237094649384   T   T   T
  5.7670156017807317  1.3613262984387406 17.7693201712193733   T   T   T
  9.5996543643969350  1.3544016835525241 17.7774956600970349   T   T   T
  1.9142109229901407  4.0688707441094865 17.7751466857349563   T   T   T
  5.7665983374389445  4.0677963702307762 17.7729428388647648   T   T   T
  9.5997843742797020  4.0762477606413441 17.7788785152840809   T   T   T
  0.0017349787717827  5.4279138990702727 19.0099449168409365   T   T   T
  3.8439049717089735  5.4231207584296666 18.9574807262965237   T   T   T
  7.6769024056469704  5.4277387859197397 19.0096448671506586   T   T   T
  0.0020028316464805  2.7159726297392979 19.0018632379067718   T   T   T
  3.8441274743857745  2.7219988285694683 19.0282676667733384   T   T   T
  7.6763906099946366  2.7158400364987547 19.0012291433729814   T   T   T
  3.5965037111260916  3.6144199885472186 23.3734394499424099   T   T   T
  3.6743646229277735  3.6822270931525938 21.8946124514635869   T   T   T
  3.7332682298612467  2.6644419337900058 21.1718071695630812   T   T   T
  2.6773050420933102  4.1178169419912409 23.7189167901336191   T   T   T
  3.6218732404992298  2.5899984434426893 23.7556822510920753   T   T   T
  4.4213551015184533  4.1989577892983174 23.8148958341974648   T   T   T
  3.6826148964765304  4.6860149868973453 21.4241663738252406   T   T   T
