CH3OH_Pt100
 1.0000000000000000
     8.3155757467537992    0.0000000000000000    0.0000000000000000
     0.0000000000000000    8.3155757467537992    0.0000000000000000
     0.0000000000000000    0.0000000000000000   35.8800000000000026
 Pt  C   O   H  
  36   1   1   4
Selective dynamics
Cartesian
  1.3859292911256331  1.3859292911256331 15.0000000000000018   F   F   F
  4.1577878733768996  1.3859292911256331 15.0000000000000018   F   F   F
  6.9296464556281654  1.3859292911256331 15.0000000000000018   F   F   F
  1.3859292911256331  4.1577878733768996 15.0000000000000018   F   F   F
  4.1577878733768996  4.1577878733768996 15.0000000000000018   F   F   F
  6.9296464556281654  4.1577878733768996 15.0000000000000018   F   F   F
  1.3859292911256331  6.9296464556281654 15.0000000000000018   F   F   F
  4.1577878733768996  6.9296464556281654 15.0000000000000018   F   F   F
  6.9296464556281654  6.9296464556281654 15.0000000000000018   F   F   F
  0.0000000000000000  0.0000000000000000 16.9600000000000009   F   F   F
  2.7718585822512662  0.0000000000000000 16.9600000000000009   F   F   F
  5.5437171645025325  0.0000000000000000 16.9600000000000009   F   F   F
  0.0000000000000000  2.7718585822512662 16.9600000000000009   F   F   F
  2.7718585822512662  2.7718585822512662 16.9600000000000009   F   F   F
  5.5437171645025325  2.7718585822512662 16.9600000000000009   F   F   F
  0.0000000000000000  5.5437171645025325 16.9600000000000009   F   F   F
  2.7718585822512662  5.5437171645025325 16.9600000000000009   F   F   F
  5.5437171645025325  5.5437171645025325 16.9600000000000009   F   F   F
  1.3847361186937224  1.3862607534515676 18.9506584442536798   T   T   T
  4.1596975181389704  1.3891571839755865 18.9461870553266998   T   T   T
  6.9283928504296028  1.3935523264022358 18.9468712443128737   T   T   T
  1.3810989446652562  4.1579272203078004 18.9405042279741203   T   T   T
  4.1681320426410009  4.1694063720788952 18.9690310926138892   T   T   T
  6.9126271201590113  4.1733447336846838 18.9670899732357547   T   T   T
  1.3828426932193778  6.9324306124516939 18.9421780209391706   T   T   T
  4.1641668117414472  6.9244694190900038 18.9616327530933013   T   T   T
  6.9183705257894825  6.9291982359906559 18.9620868463593872   T   T   T
  8.3121763297464248  0.0012803541009730 20.9336552271047012   T   T   T
  2.7780933093517910  8.3131572355027998 20.9304553767132226   T   T   T
  5.5430766327071685  0.0049119135405858 20.9356738414879437   T   T   T
  8.3130734444627663  2.7798952909649657 20.9345601830266546   T   T   T
  2.7723623068010848  2.7719672544576643 20.9264645354807826   T   T   T
  5.5417943856738248  2.7378599562020915 20.9525242024080782   T   T   T
  0.0105655948702877  5.5470095152812231 20.9312679564401840   T   T   T
  2.7448348566658756  5.5430596653164388 20.9117034494779865   T   T   T
  5.5471971518315737  5.4944461041322521 21.0072323925063031   T   T   T
  4.4773230619724060  5.0918767024418417 23.9446018146339590   T   T   T
  5.5055329497765317  5.8332899104694409 23.2445633463847550   T   T   T
  4.6746121429604557  4.0270593654867506 23.7758233156586094   T   T   T
  5.2853710317168430  6.7923884962118581 23.2287127457546489   T   T   T
  4.5322311320747817  5.3155103595238149 25.0176956555140890   T   T   T
  3.4753356269565971  5.3462174742336872 23.5594733675934336   T   T   T
