C2H6_Au110
 1.0000000000000000
    16.3200000000000003    0.0000000000000000    0.0000000000000000
     0.0000000000000000   11.5399826689644573    0.0000000000000000
     0.0000000000000000    0.0000000000000000   34.3274935008616708
 Au  C   H  
  64   2   6
Selective dynamics
Cartesian
  2.0400000000000000  1.4424978336205572 14.9999999999999964   F   F   F
  6.1200000000000001  1.4424978336205572 14.9999999999999964   F   F   F
 10.1999999999999922  1.4424978336205572 14.9999999999999964   F   F   F
 14.2800000000000011  1.4424978336205572 14.9999999999999964   F   F   F
  2.0400000000000000  4.3274935008616717 14.9999999999999964   F   F   F
  6.1200000000000001  4.3274935008616717 14.9999999999999964   F   F   F
 10.1999999999999922  4.3274935008616717 14.9999999999999964   F   F   F
 14.2800000000000011  4.3274935008616717 14.9999999999999964   F   F   F
  2.0400000000000000  7.2124891681027856 14.9999999999999964   F   F   F
  6.1200000000000001  7.2124891681027856 14.9999999999999964   F   F   F
 10.1999999999999922  7.2124891681027856 14.9999999999999964   F   F   F
 14.2800000000000011  7.2124891681027856 14.9999999999999964   F   F   F
  2.0400000000000000 10.0974848353439004 14.9999999999999964   F   F   F
  6.1200000000000001 10.0974848353439004 14.9999999999999964   F   F   F
 10.1999999999999922 10.0974848353439004 14.9999999999999964   F   F   F
 14.2800000000000011 10.0974848353439004 14.9999999999999964   F   F   F
  0.0000000000000000  0.0000000000000000 16.4424978336205569   F   F   F
  4.0800000000000001  0.0000000000000000 16.4424978336205569   F   F   F
  8.1600000000000001  0.0000000000000000 16.4424978336205569   F   F   F
 12.2400000000000002  0.0000000000000000 16.4424978336205569   F   F   F
  0.0000000000000000  2.8849956672411143 16.4424978336205569   F   F   F
  4.0800000000000001  2.8849956672411143 16.4424978336205569   F   F   F
  8.1600000000000001  2.8849956672411143 16.4424978336205569   F   F   F
 12.2400000000000002  2.8849956672411143 16.4424978336205569   F   F   F
  0.0000000000000000  5.7699913344822287 16.4424978336205569   F   F   F
  4.0800000000000001  5.7699913344822287 16.4424978336205569   F   F   F
  8.1600000000000001  5.7699913344822287 16.4424978336205569   F   F   F
 12.2400000000000002  5.7699913344822287 16.4424978336205569   F   F   F
  0.0000000000000000  8.6549870017233435 16.4424978336205569   F   F   F
  4.0800000000000001  8.6549870017233435 16.4424978336205569   F   F   F
  8.1600000000000001  8.6549870017233435 16.4424978336205569   F   F   F
 12.2400000000000002  8.6549870017233435 16.4424978336205569   F   F   F
  2.0414302283734278  1.4427488520737692 18.0761074993771551   T   T   T
  6.1197526833844220  1.4432742157611975 18.0760567792556195   T   T   T
 10.1992676676351213  1.4424394326846151 18.0751135977574151   T   T   T
 14.2800758160859722  1.4426109930604829 18.0742220673299414   T   T   T
  2.0411755596351351  4.3269986877297875 18.0764065803145719   T   T   T
  6.1197026024854226  4.3267631809450808 18.0768011323574918   T   T   T
 10.1988665984904632  4.3274733425121790 18.0756696073039862   T   T   T
 14.2800894229936475  4.3273978471866705 18.0742143585385975   T   T   T
  2.0403046475234294  7.2121843413991771 18.0742856543114456   T   T   T
  6.1200292589014769  7.2115425766045815 18.0751365046326953   T   T   T
 10.1997102855071340  7.2123012210921482 18.0743661667151905   T   T   T
 14.2799767089688192  7.2124403614201169 18.0740521568010379   T   T   T
  2.0401035395151901 10.0976900952031965 18.0742914471671732   T   T   T
  6.1203246869709123 10.0980727815681277 18.0744679291495487   T   T   T
 10.1997246819659377 10.0976118879732439 18.0740719354821060   T   T   T
 14.2800164798789986 10.0975332344605349 18.0740490661563697   T   T   T
  0.0004958005785505  0.0003920316825360 19.4094060407983875   T   T   T
  4.0795560440366359 11.5388890206717782 19.4071356511488702   T   T   T
  8.1597297179259982  0.0014109136972137 19.4098569115417838   T   T   T
 12.2397569923539802  0.0001679224602114 19.4093377321851790   T   T   T
  0.0001542326971693  2.8850336168499711 19.4093850709511138   T   T   T
  4.0766937882521805  2.8856929990261557 19.4039553542618641   T   T   T
  8.1633423436623183  2.8853449036472587 19.4057889261438490   T   T   T
 12.2400921967325207  2.8850763057417734 19.4093768581184598   T   T   T
  0.0004624282354956  5.7696281172080512 19.4093654616216327   T   T   T
  4.0789716323730101  5.7708583479214797 19.4074743309291691   T   T   T
  8.1601311867784112  5.7689066242478653 19.4083079440373574   T   T   T
 12.2398931871573691  5.7697625691313910 19.4093431951176392   T   T   T
  0.0000598446339248  8.6549451319884501 19.4093988545633209   T   T   T
  4.0801705522386396  8.6548135528268411 19.4094680330556031   T   T   T
  8.1599292599187585  8.6546234133953863 19.4093357038361596   T   T   T
 12.2399595607636282  8.6549786828075810 19.4095286538914493   T   T   T
  5.1710529241749379  2.5325055493576887 22.6623614267157691   T   T   T
  6.2069457570022051  3.6548351969972774 22.6789713054370736   T   T   T
  5.0724914419203753  2.0541608765877273 23.6481498212016668   T   T   T
  4.1712995589943782  2.9028520909060656 22.3851867156216144   T   T   T
  5.4395093033896416  1.7393132407139351 21.9470411687743550   T   T   T
  6.2815872119695024  4.1523429759427222 21.7002759283144826   T   T   T
  7.2086312081144159  3.2779544033103090 22.9306792693888326   T   T   T
  5.9530854981555370  4.4299566093141305 23.4155735535180440   T   T   T
