CH3CH2OH_Rh110
 1.0000000000000000
    11.4089999999999989    0.0000000000000000    0.0000000000000000
     0.0000000000000000    5.3782541777048811    0.0000000000000000
     0.0000000000000000    0.0000000000000000   34.0336906332786597
 Rh  C   O   H  
  24   2   1   6
Selective dynamics
Cartesian
  1.9014999999999997  1.3445635444262203 15.0000000000000000   F   F   F
  5.7044999999999995  1.3445635444262203 15.0000000000000000   F   F   F
  9.5074999999999985  1.3445635444262203 15.0000000000000000   F   F   F
  1.9014999999999997  4.0336906332786606 15.0000000000000000   F   F   F
  5.7044999999999995  4.0336906332786606 15.0000000000000000   F   F   F
  9.5074999999999985  4.0336906332786606 15.0000000000000000   F   F   F
  0.0000000000000000  0.0000000000000000 16.3445635444262187   F   F   F
  3.8029999999999995  0.0000000000000000 16.3445635444262187   F   F   F
  7.6059999999999990  0.0000000000000000 16.3445635444262187   F   F   F
  0.0000000000000000  2.6891270888524406 16.3445635444262187   F   F   F
  3.8029999999999995  2.6891270888524406 16.3445635444262187   F   F   F
  7.6059999999999990  2.6891270888524406 16.3445635444262187   F   F   F
  1.9008051700178257  1.3472915893023152 17.7368887340754036   T   T   T
  5.7092148747080538  1.3419711258738403 17.7285672338883344   T   T   T
  9.5063772208465078  1.3475341566593118 17.7416838139083879   T   T   T
  1.8986531963673945  4.0347348160043053 17.7399206447535001   T   T   T
  5.7049012340988945  4.0436503536724535 17.7388238314692792   T   T   T
  9.5069911223689285  4.0296248416362355 17.7387260028749338   T   T   T
 11.4045077980564873  5.3770951215147695 18.9797080971627423   T   T   T
  3.8338347618683644  0.0104471586796169 19.0188337481396914   T   T   T
  7.6000442831916759  0.0000266444089469 18.9846212769076743   T   T   T
  0.0045356595112090  2.6874518461918937 18.9916378562464168   T   T   T
  3.8179483159159493  2.6924579134126536 18.9480335939205595   T   T   T
  7.5986671222813111  2.6899136482958141 18.9874952696630324   T   T   T
  4.6563177715437645  1.0267341281227693 22.3033089284757580   T   T   T
  3.1788789228366419  0.9985161691927976 22.0103143692961858   T   T   T
  2.8892749022603450  5.3494992854412766 21.0180244206193478   T   T   T
  1.9290747476044812  0.0246359326005789 20.7839641192142395   T   T   T
  2.5768504517531432  0.7631200242101835 22.9019842008923220   T   T   T
  2.8275452542005071  1.9705222331239283 21.6146367261696355   T   T   T
  5.2372433408952519  1.2876095941718857 21.4084976945721586   T   T   T
  4.8636561096120410  1.7802532779161413 23.0754952264460194   T   T   T
  5.0082586448069311  0.0542663029727484 22.6679522416376855   T   T   T
