CH3OH_Ir111
 1.0000000000000000
    10.8611601590253706    0.0000000000000000    0.0000000000000000
     0.0000000000000000    9.4060406122874021    0.0000000000000000
     0.0000000000000000    0.0000000000000000   36.6510751010644924
 Ir  C   O   H  
  64   1   1   4
Selective dynamics
Cartesian
  0.0000000000000000  0.0000000000000000 15.0000000000000018   F   F   F
  2.7152900397563422  0.0000000000000000 15.0000000000000018   F   F   F
  5.4305800795126844  0.0000000000000000 15.0000000000000018   F   F   F
  8.1458701192690270  0.0000000000000000 15.0000000000000018   F   F   F
  1.3576450198781711  2.3515101530718505 15.0000000000000018   F   F   F
  4.0729350596345135  2.3515101530718505 15.0000000000000018   F   F   F
  6.7882250993908571  2.3515101530718505 15.0000000000000018   F   F   F
  9.5035151391471988  2.3515101530718505 15.0000000000000018   F   F   F
  0.0000000000000000  4.7030203061437010 15.0000000000000018   F   F   F
  2.7152900397563422  4.7030203061437010 15.0000000000000018   F   F   F
  5.4305800795126844  4.7030203061437010 15.0000000000000018   F   F   F
  8.1458701192690270  4.7030203061437010 15.0000000000000018   F   F   F
  1.3576450198781711  7.0545304592155516 15.0000000000000018   F   F   F
  4.0729350596345135  7.0545304592155516 15.0000000000000018   F   F   F
  6.7882250993908571  7.0545304592155516 15.0000000000000018   F   F   F
  9.5035151391471988  7.0545304592155516 15.0000000000000018   F   F   F
  1.3576450198781711  0.7838367176906168 17.2170250336881665   F   F   F
  4.0729350596345135  0.7838367176906168 17.2170250336881665   F   F   F
  6.7882250993908571  0.7838367176906168 17.2170250336881665   F   F   F
  9.5035151391471988  0.7838367176906168 17.2170250336881665   F   F   F
  0.0000000000000000  3.1353468707624672 17.2170250336881665   F   F   F
  2.7152900397563422  3.1353468707624672 17.2170250336881665   F   F   F
  5.4305800795126844  3.1353468707624672 17.2170250336881665   F   F   F
  8.1458701192690270  3.1353468707624672 17.2170250336881665   F   F   F
  1.3576450198781711  5.4868570238343182 17.2170250336881665   F   F   F
  4.0729350596345135  5.4868570238343182 17.2170250336881665   F   F   F
  6.7882250993908571  5.4868570238343182 17.2170250336881665   F   F   F
  9.5035151391471988  5.4868570238343182 17.2170250336881665   F   F   F
  0.0000000000000000  7.8383671769061687 17.2170250336881665   F   F   F
  2.7152900397563422  7.8383671769061687 17.2170250336881665   F   F   F
  5.4305800795126844  7.8383671769061687 17.2170250336881665   F   F   F
  8.1458701192690270  7.8383671769061687 17.2170250336881665   F   F   F
 10.8600789805428537  1.5648351663139461 19.4412720859754415   T   T   T
  2.7241682507348455  1.5713102036813147 19.4754482290787472   T   T   T
  5.4196883098635382  1.5733102131853565 19.4767944013466625   T   T   T
  8.1451700850841320  1.5649061359517373 19.4415242279503673   T   T   T
  1.3581542676548468  3.9184455771077773 19.4484716742319215   T   T   T
  4.0731681890336144  3.9088647118317574 19.4761793511258787   T   T   T
  6.7893477102568083  3.9181807569251115 19.4470255397410732   T   T   T
  9.5037770025396942  3.9194641428259049 19.4462393685520283   T   T   T
  0.0001779749921522  6.2701418513543121 19.4445208813141832   T   T   T
  2.7160720612456490  6.2718961145388814 19.4399352682708049   T   T   T
  5.4286513080689689  6.2703293726847802 19.4426025145476764   T   T   T
  8.1465759066218553  6.2704208278110229 19.4441682773565852   T   T   T
  1.3553589079404036  8.6224247630596853 19.4423449858660469   T   T   T
  4.0738468578227103  8.6210010641560597 19.4489479444966307   T   T   T
  6.7897068018857718  8.6228531801486508 19.4413793349849406   T   T   T
  9.5032792691141541  8.6213874630077960 19.4464095397927892   T   T   T
 10.8611594207478266  9.4042150616550728 21.6581392128280008   T   T   T
  2.7064625085350347  9.3900939749639463 21.6445988152488766   T   T   T
  5.4413003123100268  9.3879356367364988 21.6528978128633867   T   T   T
  8.1428210659780973  9.4048551307732797 21.6590519284741134   T   T   T
  1.3406087727454972  2.3499163084732300 21.6501372611784930   T   T   T
  4.0693574924530465  2.3334568578220898 21.7089179490885620   T   T   T
  6.8073806062778575  2.3507817089650818 21.6527544191321262   T   T   T
  9.5072702247763363  2.3528796407701371 21.6591415328833250   T   T   T
  0.0021624725506846  4.7025875225814131 21.6626613043181386   T   T   T
  2.7030565910532189  4.7211477503356782 21.6561522790517103   T   T   T
  5.4425014969132253  4.7188073437236255 21.6513383369889496   T   T   T
  8.1438098250237800  4.7015277097988637 21.6602558453995435   T   T   T
  1.3539361598163160  7.0536118468735376 21.6629625618656512   T   T   T
  4.0716935710773390  7.0512266307636917 21.6639448590163752   T   T   T
  6.7947386416304649  7.0539366172137230 21.6616192228803115   T   T   T
  9.5040150913939332  7.0534924509879531 21.6568171426709490   T   T   T
  3.7772466403111529  1.3187384664544999 24.7878158576039489   T   T   T
  4.0173992178674665  2.4799105649753290 23.9493610354590132   T   T   T
  4.5674877486715690  0.5920689615680275 24.5683727755513814   T   T   T
  3.2954231206914208  3.1377758153530966 24.0759879376952384   T   T   T
  3.8371184911755880  1.6409053297755825 25.8337194016570244   T   T   T
  2.7939376499992421  0.8716576691207905 24.5765344548774749   T   T   T
