CH3COOH_Rh110
 1.0000000000000000
    11.4089999999999989    0.0000000000000000    0.0000000000000000
     0.0000000000000000    5.3782541777048811    0.0000000000000000
     0.0000000000000000    0.0000000000000000   34.0336906332786597
 Rh  C   O   H  
  24   2   2   4
Selective dynamics
Cartesian
  1.9014999999999997  1.3445635444262203 15.0000000000000000   F   F   F
  5.7044999999999995  1.3445635444262203 15.0000000000000000   F   F   F
  9.5074999999999985  1.3445635444262203 15.0000000000000000   F   F   F
  1.9014999999999997  4.0336906332786606 15.0000000000000000   F   F   F
  5.7044999999999995  4.0336906332786606 15.0000000000000000   F   F   F
  9.5074999999999985  4.0336906332786606 15.0000000000000000   F   F   F
  0.0000000000000000  0.0000000000000000 16.3445635444262187   F   F   F
  3.8029999999999995  0.0000000000000000 16.3445635444262187   F   F   F
  7.6059999999999990  0.0000000000000000 16.3445635444262187   F   F   F
  0.0000000000000000  2.6891270888524406 16.3445635444262187   F   F   F
  3.8029999999999995  2.6891270888524406 16.3445635444262187   F   F   F
  7.6059999999999990  2.6891270888524406 16.3445635444262187   F   F   F
  1.9024718989184222  1.3514653860044508 17.7430402205674085   T   T   T
  5.7088511755781957  1.3452361866563383 17.7264590962470940   T   T   T
  9.5104721318504897  1.3482686918624383 17.7367528890720187   T   T   T
  1.9021221296749506  4.0416043720317143 17.7368167595176729   T   T   T
  5.7174489671802196  4.0398972814863665 17.7221940233857431   T   T   T
  9.5050018316935247  4.0328590066292964 17.7322635237453383   T   T   T
  0.0039331459621400  0.0003468666567011 18.9782600642000148   T   T   T
  3.8091378790176513  0.0112786837879943 19.0057295638855059   T   T   T
  7.6047550284028027  0.0020240765111595 18.9822335650940808   T   T   T
 11.4071709206707119  2.6961081311326600 18.9893096161676667   T   T   T
  3.8155033550138615  2.7055283838126014 18.9420864411584873   T   T   T
  7.6079053935436605  2.6889285006447179 18.9935762229635756   T   T   T
  3.5978815252467036  0.8360236896633346 23.3771897746454940   T   T   T
  3.2192052400734319  0.6694405420087579 21.9460896729157291   T   T   T
  3.9521071526384510  0.0670905810900683 21.1274204442013769   T   T   T
  2.0546220126936978  1.2165591994299128 21.6239877803231266   T   T   T
  3.6415883741467852  1.9045721593565523 23.6128927196936829   T   T   T
  4.5660050898136832  0.3781135664359748 23.5734468445934766   T   T   T
  2.8285728590882737  0.4067555285518703 24.0282007226124286   T   T   T
  1.9001057142943181  1.0656846554138901 20.6400687010892945   T   T   T
