CH3CHO_Au100
 1.0000000000000000
    11.5399826689644573    0.0000000000000000    0.0000000000000000
     0.0000000000000000   11.5399826689644573    0.0000000000000000
     0.0000000000000000    0.0000000000000000   36.1199999999999974
 Au  C   O   H  
  64   2   1   4
Selective dynamics
Cartesian
  1.4424978336205572  1.4424978336205572 14.9999999999999982   F   F   F
  4.3274935008616717  1.4424978336205572 14.9999999999999982   F   F   F
  7.2124891681027856  1.4424978336205572 14.9999999999999982   F   F   F
 10.0974848353439004  1.4424978336205572 14.9999999999999982   F   F   F
  1.4424978336205572  4.3274935008616717 14.9999999999999982   F   F   F
  4.3274935008616717  4.3274935008616717 14.9999999999999982   F   F   F
  7.2124891681027856  4.3274935008616717 14.9999999999999982   F   F   F
 10.0974848353439004  4.3274935008616717 14.9999999999999982   F   F   F
  1.4424978336205572  7.2124891681027856 14.9999999999999982   F   F   F
  4.3274935008616717  7.2124891681027856 14.9999999999999982   F   F   F
  7.2124891681027856  7.2124891681027856 14.9999999999999982   F   F   F
 10.0974848353439004  7.2124891681027856 14.9999999999999982   F   F   F
  1.4424978336205572 10.0974848353439004 14.9999999999999982   F   F   F
  4.3274935008616717 10.0974848353439004 14.9999999999999982   F   F   F
  7.2124891681027856 10.0974848353439004 14.9999999999999982   F   F   F
 10.0974848353439004 10.0974848353439004 14.9999999999999982   F   F   F
  0.0000000000000000  0.0000000000000000 17.0399999999999991   F   F   F
  2.8849956672411143  0.0000000000000000 17.0399999999999991   F   F   F
  5.7699913344822287  0.0000000000000000 17.0399999999999991   F   F   F
  8.6549870017233435  0.0000000000000000 17.0399999999999991   F   F   F
  0.0000000000000000  2.8849956672411143 17.0399999999999991   F   F   F
  2.8849956672411143  2.8849956672411143 17.0399999999999991   F   F   F
  5.7699913344822287  2.8849956672411143 17.0399999999999991   F   F   F
  8.6549870017233435  2.8849956672411143 17.0399999999999991   F   F   F
  0.0000000000000000  5.7699913344822287 17.0399999999999991   F   F   F
  2.8849956672411143  5.7699913344822287 17.0399999999999991   F   F   F
  5.7699913344822287  5.7699913344822287 17.0399999999999991   F   F   F
  8.6549870017233435  5.7699913344822287 17.0399999999999991   F   F   F
  0.0000000000000000  8.6549870017233435 17.0399999999999991   F   F   F
  2.8849956672411143  8.6549870017233435 17.0399999999999991   F   F   F
  5.7699913344822287  8.6549870017233435 17.0399999999999991   F   F   F
  8.6549870017233435  8.6549870017233435 17.0399999999999991   F   F   F
  1.4428198982979108  1.4425184587326711 19.1847615129741449   T   T   T
  4.3266780354769399  1.4429727651375099 19.1831499216378063   T   T   T
  7.2132221270293577  1.4429809375779017 19.1830400692194232   T   T   T
 10.0972822683233758  1.4425975042490520 19.1845927291975720   T   T   T
  1.4430326331872960  4.3267645652741047 19.1833468488439571   T   T   T
  4.3301011209074582  4.3298657628587414 19.1903257754086773   T   T   T
  7.2098228027428704  4.3300258810108785 19.1903671604673214   T   T   T
 10.0969223589176025  4.3267774710863849 19.1833517178845057   T   T   T
  1.4424405744146231  7.2133649503900399 19.1823944518851839   T   T   T
  4.3289923430695332  7.2088669766901114 19.1889774686133414   T   T   T
  7.2109013941430682  7.2086433615928538 19.1892227939483249   T   T   T
 10.0973688695541419  7.2132157178023526 19.1826217563518782   T   T   T
  1.4425776298779311 10.0975295037211925 19.1841782159975160   T   T   T
  4.3264459918076561 10.0978417022090152 19.1832240253505972   T   T   T
  7.2136151269031306 10.0977884677875736 19.1832452539002460   T   T   T
 10.0974239304070874 10.0975206620849249 19.1841775079886432   T   T   T
  0.0000332538416962  0.0001119818381591 21.3084287879720726   T   T   T
  2.8862593103821066 11.5392844592655557 21.3091386890205001   T   T   T
  5.7699302853285870 11.5375109043003157 21.3089598971964662   T   T   T
  8.6539998811905985 11.5397409492836047 21.3085561399597161   T   T   T
  0.0000173578542599  2.8849542933883519 21.3083709392113860   T   T   T
  2.8867573175417971  2.8864500158531254 21.3084498226055956   T   T   T
  5.7699997240365208  2.8752452975995273 21.3014792027617261   T   T   T
  8.6532710818535286  2.8862655242148669 21.3084074003633681   T   T   T
 11.5397876493327978  5.7702747596525894 21.3087634915892998   T   T   T
  2.8772239061293798  5.7705662892888023 21.3034321282119841   T   T   T
  5.7704232462298641  5.7803822441646968 21.3123488665577803   T   T   T
  8.6621574751950465  5.7704978324108946 21.3049430321519289   T   T   T
 11.5398831117658105  8.6547805541491716 21.3083785473732341   T   T   T
  2.8862533963028638  8.6527829018619205 21.3079353248536023   T   T   T
  5.7699726447757147  8.6590850577104295 21.2995206763434020   T   T   T
  8.6536207213382568  8.6528770835104769 21.3083577504876587   T   T   T
  5.6775322371873171  7.6465440842296051 25.0569589781876054   T   T   T
  5.6740150709926480  6.1482804015847030 25.1059826962464214   T   T   T
  5.7254091804666869  5.4041717110987495 24.1322123145299940   T   T   T
  4.7499642301953635  8.0468125099520762 25.4959673869523513   T   T   T
  6.4948109797410680  8.0499177017278392 25.6735754355434906   T   T   T
  5.7809563146759038  7.9875109433048621 24.0202311243200057   T   T   T
  5.6189620792564465  5.7071543027364759 26.1292196260525138   T   T   T
