C2H4_Au100
 1.0000000000000000
    11.5399826689644573    0.0000000000000000    0.0000000000000000
     0.0000000000000000   11.5399826689644573    0.0000000000000000
     0.0000000000000000    0.0000000000000000   36.1199999999999974
 Au  C   H  
  64   2   4
Selective dynamics
Cartesian
  1.4424978336205572  1.4424978336205572 14.9999999999999982   F   F   F
  4.3274935008616717  1.4424978336205572 14.9999999999999982   F   F   F
  7.2124891681027856  1.4424978336205572 14.9999999999999982   F   F   F
 10.0974848353439004  1.4424978336205572 14.9999999999999982   F   F   F
  1.4424978336205572  4.3274935008616717 14.9999999999999982   F   F   F
  4.3274935008616717  4.3274935008616717 14.9999999999999982   F   F   F
  7.2124891681027856  4.3274935008616717 14.9999999999999982   F   F   F
 10.0974848353439004  4.3274935008616717 14.9999999999999982   F   F   F
  1.4424978336205572  7.2124891681027856 14.9999999999999982   F   F   F
  4.3274935008616717  7.2124891681027856 14.9999999999999982   F   F   F
  7.2124891681027856  7.2124891681027856 14.9999999999999982   F   F   F
 10.0974848353439004  7.2124891681027856 14.9999999999999982   F   F   F
  1.4424978336205572 10.0974848353439004 14.9999999999999982   F   F   F
  4.3274935008616717 10.0974848353439004 14.9999999999999982   F   F   F
  7.2124891681027856 10.0974848353439004 14.9999999999999982   F   F   F
 10.0974848353439004 10.0974848353439004 14.9999999999999982   F   F   F
  0.0000000000000000  0.0000000000000000 17.0399999999999991   F   F   F
  2.8849956672411143  0.0000000000000000 17.0399999999999991   F   F   F
  5.7699913344822287  0.0000000000000000 17.0399999999999991   F   F   F
  8.6549870017233435  0.0000000000000000 17.0399999999999991   F   F   F
  0.0000000000000000  2.8849956672411143 17.0399999999999991   F   F   F
  2.8849956672411143  2.8849956672411143 17.0399999999999991   F   F   F
  5.7699913344822287  2.8849956672411143 17.0399999999999991   F   F   F
  8.6549870017233435  2.8849956672411143 17.0399999999999991   F   F   F
  0.0000000000000000  5.7699913344822287 17.0399999999999991   F   F   F
  2.8849956672411143  5.7699913344822287 17.0399999999999991   F   F   F
  5.7699913344822287  5.7699913344822287 17.0399999999999991   F   F   F
  8.6549870017233435  5.7699913344822287 17.0399999999999991   F   F   F
  0.0000000000000000  8.6549870017233435 17.0399999999999991   F   F   F
  2.8849956672411143  8.6549870017233435 17.0399999999999991   F   F   F
  5.7699913344822287  8.6549870017233435 17.0399999999999991   F   F   F
  8.6549870017233435  8.6549870017233435 17.0399999999999991   F   F   F
  1.4439043274452197  1.4438267813788928 19.1845326439894848   T   T   T
  4.3264951302255215  1.4433875184211977 19.1841877829911347   T   T   T
  7.2126692229146343  1.4417046928139319 19.1829935640512126   T   T   T
 10.0973120485292149  1.4419185968278205 19.1833241822163920   T   T   T
  1.4460560463249479  4.3270119895626369 19.1886038102822916   T   T   T
  4.3244101312285856  4.3272788665927608 19.1889244316958454   T   T   T
  7.2125576358285057  4.3276097052232290 19.1820095157727053   T   T   T
 10.0971901599553497  4.3276668854831968 19.1821728379380225   T   T   T
  1.4431852597751564  7.2115479605356558 19.1839936637268451   T   T   T
  4.3268101293816468  7.2117033535236157 19.1838217934095319   T   T   T
  7.2126914299665339  7.2129787021230234 19.1834535212832975   T   T   T
 10.0973902976748882  7.2128260955113062 19.1837213330061900   T   T   T
  1.4418341140923145 10.0974998015680058 19.1830317012109575   T   T   T
  4.3281240369981697 10.0974929298836589 19.1829257238145487   T   T   T
  7.2121500326431596 10.0974648323441620 19.1851232678666150   T   T   T
 10.0979266860778019 10.0974952171583006 19.1851266905063582   T   T   T
  0.0013447445429197  0.0009210022802178 21.3097005577154448   T   T   T
  2.8851543841717167 11.5353983437625960 21.3088635984568953   T   T   T
  5.7688269364383791  0.0007717898047229 21.3094816242589680   T   T   T
  8.6549357996291452  0.0004566720476608 21.3084881652726494   T   T   T
 11.5349745406123674  2.8849375235790249 21.3063520414022278   T   T   T
  2.8853233010114270  2.8754940986901536 21.3066036173928524   T   T   T
  5.7764030372171780  2.8845637806914191 21.3049808373735665   T   T   T
  8.6557701191136829  2.8856041249999231 21.3091912586536374   T   T   T
 11.5371828879704470  5.7693053498951423 21.3075417346741354   T   T   T
  2.8852855356627130  5.7803945186792172 21.3071645094196249   T   T   T
  5.7738941526871699  5.7700303874285979 21.3061017919745588   T   T   T
  8.6554025001065309  5.7692932554908021 21.3091777506218421   T   T   T
  0.0015233973351711  8.6538352012807920 21.3098087305202881   T   T   T
  2.8850620328699952  8.6587964141763294 21.3089042928895083   T   T   T
  5.7685550915673973  8.6540650614815000 21.3096652962633364   T   T   T
  8.6549558383615075  8.6545882134135965 21.3084245390612175   T   T   T
  2.9721456746384529  4.8555942321674861 24.3622651783174007   T   T   T
  3.0201987834106161  3.5119417856632054 24.3138474238256102   T   T   T
  3.8814208738886320  5.4536278079343123 24.4194319797182295   T   T   T
  2.0215915247181435  5.3872349371202057 24.3976743840343104   T   T   T
  3.9698430704429817  2.9775072305661126 24.3396316953799499   T   T   T
  2.1108803358866117  2.9108712757022586 24.3215800595940657   T   T   T
