CH3COOH_Pd111
 1.0000000000000000
     8.2519361364470107    0.0000000000000000    0.0000000000000000
     4.1259680682235054    7.1463863245699208    0.0000000000000000
     0.0000000000000000    0.0000000000000000   36.7376776414429358
 Pd  C   O   H  
  36   2   2   4
Selective dynamics
Cartesian
  0.0000000000000000  0.0000000000000000 15.0000000000000000   F   F   F
  2.7506453788156700  0.0000000000000000 15.0000000000000000   F   F   F
  5.5012907576313399  0.0000000000000000 15.0000000000000000   F   F   F
  1.3753226894078350  2.3821287748566400 15.0000000000000000   F   F   F
  4.1259680682235054  2.3821287748566400 15.0000000000000000   F   F   F
  6.8766134470391753  2.3821287748566400 15.0000000000000000   F   F   F
  2.7506453788156700  4.7642575497132800 15.0000000000000000   F   F   F
  5.5012907576313399  4.7642575497132800 15.0000000000000000   F   F   F
  8.2519361364470107  4.7642575497132800 15.0000000000000000   F   F   F
  1.3753226894078350  0.7940429249522137 17.2458925471476441   F   F   F
  4.1259680682235045  0.7940429249522137 17.2458925471476441   F   F   F
  6.8766134470391744  0.7940429249522137 17.2458925471476441   F   F   F
  2.7506453788156700  3.1761716998088549 17.2458925471476441   F   F   F
  5.5012907576313399  3.1761716998088549 17.2458925471476441   F   F   F
  8.2519361364470090  3.1761716998088549 17.2458925471476441   F   F   F
  4.1259680682235054  5.5583004746654945 17.2458925471476441   F   F   F
  6.8766134470391753  5.5583004746654945 17.2458925471476441   F   F   F
  9.6272588258548453  5.5583004746654945 17.2458925471476441   F   F   F
  8.2562575587546405  1.5825689145548383 19.5239906275429007   T   T   T
  2.7501888499486014  1.5859521661430542 19.5212862963467941   T   T   T
  5.5007773530988331  1.5869025435571609 19.5208238201521134   T   T   T
  9.6299837498842873  3.9675478832362940 19.5236381231526366   T   T   T
  4.1376038823167205  3.9771066134200419 19.5523197010502017   T   T   T
  6.8744875179806275  3.9723442334822794 19.5370116902319495   T   T   T
 11.0033202076614351  6.3534248378007074 19.5295917258253446   T   T   T
  5.4999839548276146  6.3321564235947125 19.5664863351246261   T   T   T
  8.2532269242107414  6.3523498653147836 19.5234586260297256   T   T   T
  4.1247290639013574  7.1441857506552724 21.8475208193497252   T   T   T
  2.7573928797320280  0.0067827467770798 21.8246115346236884   T   T   T
  9.6282334881793936  7.1424383430902649 21.8369206264272648   T   T   T
  1.3797353792150022  2.3769258807078351 21.8388408835328782   T   T   T
  4.1230186690610253  2.3725754835704329 21.8235104484433613   T   T   T
  6.8879482294533982  2.3628099559469620 21.8063125350142073   T   T   T
 10.9983613228635360  4.7645303866423081 21.8242735381507451   T   T   T
  5.5087143857345664  4.7568945133021519 21.9255121201600822   T   T   T
  8.2626195636869380  4.7627731060923084 21.8186234407868014   T   T   T
  5.7556838462696476  4.4944545321181986 26.4802343141728720   T   T   T
  5.4280391972527049  4.9123624867569413 25.0878419062458136   T   T   T
  5.8486645241071340  4.2972767568985049 24.0913620669425832   T   T   T
  4.6587793893305536  5.9942571431191984 25.0120435726578592   T   T   T
  4.8365406985033772  4.3959506771790462 27.0648379295786015   T   T   T
  6.3578366392281076  5.2741390472346659 26.9579926112083079   T   T   T
  6.3093760155573353  3.5574683926483610 26.4799049924994350   T   T   T
  4.5063374169056702  6.1968181348321698 24.0380904587041613   T   T   T
