CO_Ag100
 1.0000000000000000
     8.6762002051589384    0.0000000000000000    0.0000000000000000
     0.0000000000000000    8.6762002051589384    0.0000000000000000
     0.0000000000000000    0.0000000000000000   36.1349999999999980
 Ag  O   C  
  36   1   1
Selective dynamics
Cartesian
  1.4460333675264894  1.4460333675264894 15.0000000000000000   F   F   F
  4.3381001025794692  1.4460333675264894 15.0000000000000000   F   F   F
  7.2301668376324475  1.4460333675264894 15.0000000000000000   F   F   F
  1.4460333675264894  4.3381001025794692 15.0000000000000000   F   F   F
  4.3381001025794692  4.3381001025794692 15.0000000000000000   F   F   F
  7.2301668376324475  4.3381001025794692 15.0000000000000000   F   F   F
  1.4460333675264894  7.2301668376324475 15.0000000000000000   F   F   F
  4.3381001025794692  7.2301668376324475 15.0000000000000000   F   F   F
  7.2301668376324475  7.2301668376324475 15.0000000000000000   F   F   F
  0.0000000000000000  0.0000000000000000 17.0450000000000017   F   F   F
  2.8920667350529787  0.0000000000000000 17.0450000000000017   F   F   F
  5.7841334701059575  0.0000000000000000 17.0450000000000017   F   F   F
  0.0000000000000000  2.8920667350529787 17.0450000000000017   F   F   F
  2.8920667350529787  2.8920667350529787 17.0450000000000017   F   F   F
  5.7841334701059575  2.8920667350529787 17.0450000000000017   F   F   F
  0.0000000000000000  5.7841334701059575 17.0450000000000017   F   F   F
  2.8920667350529787  5.7841334701059575 17.0450000000000017   F   F   F
  5.7841334701059575  5.7841334701059575 17.0450000000000017   F   F   F
  1.4456000622880523  1.4452678183651577 19.1646664181506168   T   T   T
  4.3309653902953800  1.4457803208606084 19.1479427359711778   T   T   T
  7.2368500223660801  1.4459521700900486 19.1473904287565908   T   T   T
  1.4455372352768663  4.3308105532890373 19.1481536990639789   T   T   T
  4.3477894674587896  4.3481260927888199 19.1803420407182763   T   T   T
  7.2196766839190518  4.3487481595703761 19.1809845715523046   T   T   T
  1.4457117346861383  7.2366769283616241 19.1471976058220008   T   T   T
  4.3486793434759976  7.2197011501336981 19.1812581614485964   T   T   T
  7.2191806109728489  7.2194785691756840 19.1811053721166758   T   T   T
  8.6748611969632403  8.6743098835097801 21.2406788026225328   T   T   T
  2.8914262575105276  8.6742523597551102 21.2404042441684204   T   T   T
  5.7836314021174289  0.0251829973730099 21.2295082858246928   T   T   T
  8.6749485485141413  2.8907110324499454 21.2402312360558803   T   T   T
  2.8910734219314942  2.8904857313341243 21.2395874110697704   T   T   T
  5.7834538855457689  2.8742239470286792 21.2295652175780027   T   T   T
  0.0231231307494300  5.7833062518652678 21.2296278350881309   T   T   T
  2.8722093099022410  5.7831167422350926 21.2295812962636177   T   T   T
  5.7894163503699758  5.7938098477210005 21.2912630740908781   T   T   T
  5.6357944684519072  5.5516323264092797 24.5384917363385391   T   T   T
  5.7048123037382679  5.6596818499028787 23.3982729935965246   T   T   T
