CH3OH_Ir110
 1.0000000000000000
    11.5199999999999996    0.0000000000000000    0.0000000000000000
     0.0000000000000000    5.4305800795126853    0.0000000000000000
     0.0000000000000000    0.0000000000000000   34.0729350596345171
 Ir  C   O   H  
  24   1   1   4
Selective dynamics
Cartesian
  1.9199999999999999  1.3576450198781711 15.0000000000000018   F   F   F
  5.7599999999999989  1.3576450198781711 15.0000000000000018   F   F   F
  9.5999999999999996  1.3576450198781711 15.0000000000000018   F   F   F
  1.9199999999999999  4.0729350596345135 15.0000000000000018   F   F   F
  5.7599999999999989  4.0729350596345135 15.0000000000000018   F   F   F
  9.5999999999999996  4.0729350596345135 15.0000000000000018   F   F   F
  0.0000000000000000  0.0000000000000000 16.3576450198781735   F   F   F
  3.8399999999999999  0.0000000000000000 16.3576450198781735   F   F   F
  7.6799999999999997  0.0000000000000000 16.3576450198781735   F   F   F
  0.0000000000000000  2.7152900397563422 16.3576450198781735   F   F   F
  3.8399999999999999  2.7152900397563422 16.3576450198781735   F   F   F
  7.6799999999999997  2.7152900397563422 16.3576450198781735   F   F   F
  1.9154038203539092  1.3558684588069743 17.7682935932632304   T   T   T
  5.7622424482248604  1.3686265329825220 17.7727014170736730   T   T   T
  9.6011777609415798  1.3672696643619209 17.7802716493592108   T   T   T
  1.9162645428971803  4.0872524376132375 17.7725127333514301   T   T   T
  5.7638048628470147  4.0724142736023863 17.7705906670348064   T   T   T
  9.6047456555270898  4.0743424770785701 17.7763003239517730   T   T   T
  0.0048613082464958  0.0062964117283792 19.0059056556854316   T   T   T
  3.8000710630589425  0.0106456611422798 19.0303490954894805   T   T   T
  7.6867667494570222  0.0056871690173325 18.9977581214716018   T   T   T
  0.0070690214362039  2.7220419849605308 19.0083727458151870   T   T   T
  3.8207372755363282  2.7167056010223525 18.9649017534637707   T   T   T
  7.6807087875302136  2.7239343603052624 19.0082408385870494   T   T   T
  4.6089188091395803  0.9652009347604186 21.9836222041403460   T   T   T
  4.8653511945441048  5.4006542656537402 20.9645655570504346   T   T   T
  5.2470251500925045  0.7444924590599625 22.8493663378263179   T   T   T
  5.8209842769632791  0.0513170942142772 20.6713933148746278   T   T   T
  4.8322487643575034  1.9762985943972966 21.6056765669150543   T   T   T
  3.5535149565336672  0.9041981822951721 22.2680349423545181   T   T   T
