N2_Ag111
 1.0000000000000000
     8.6762002051589384    0.0000000000000000    0.0000000000000000
     4.3381001025794710    7.5138097859873962    0.0000000000000000
     0.0000000000000000    0.0000000000000000   37.0840878029567094
 Ag  N  
  36   2
Selective dynamics
Cartesian
  0.0000000000000000  0.0000000000000000 14.9999999999999982   F   F   F
  2.8920667350529787  0.0000000000000000 14.9999999999999982   F   F   F
  5.7841334701059575  0.0000000000000000 14.9999999999999982   F   F   F
  1.4460333675264903  2.5046032619957987 14.9999999999999982   F   F   F
  4.3381001025794692  2.5046032619957987 14.9999999999999982   F   F   F
  7.2301668376324475  2.5046032619957987 14.9999999999999982   F   F   F
  2.8920667350529805  5.0092065239915975 14.9999999999999982   F   F   F
  5.7841334701059592  5.0092065239915975 14.9999999999999982   F   F   F
  8.6762002051589384  5.0092065239915975 14.9999999999999982   F   F   F
  1.4460333675264898  0.8348677539985995 17.3613626009855686   F   F   F
  4.3381001025794683  0.8348677539985995 17.3613626009855686   F   F   F
  7.2301668376324484  0.8348677539985995 17.3613626009855686   F   F   F
  2.8920667350529801  3.3394710159943979 17.3613626009855686   F   F   F
  5.7841334701059592  3.3394710159943979 17.3613626009855686   F   F   F
  8.6762002051589384  3.3394710159943979 17.3613626009855686   F   F   F
  4.3381001025794710  5.8440742779901944 17.3613626009855686   F   F   F
  7.2301668376324493  5.8440742779901944 17.3613626009855686   F   F   F
 10.1222335726854276  5.8440742779901944 17.3613626009855686   F   F   F
  8.6762272338770003  1.6697452373166322 19.7658069680184312   T   T   T
  2.8920342156918131  1.6697476689975770 19.7658069285051745   T   T   T
  5.7841382217097745  1.6697733317845413 19.7658211018726391   T   T   T
 10.1222309567553452  4.1743181437737569 19.7658156551964055   T   T   T
  4.3380802371551184  4.1743308358747306 19.7657941853671666   T   T   T
  7.2301891329893326  4.1743266245124344 19.7658010807581732   T   T   T
 11.5683083662793180  6.6789232885117986 19.7658423913167098   T   T   T
  5.7841283126943193  6.6789733315508517 19.7658220223789911   T   T   T
  8.6761632222919385  6.6789167340197286 19.7658432641625090   T   T   T
  8.6762157678561280  0.0000663983044923 22.1898510064144929   T   T   T
  2.8920459140636390  0.0000564009916667 22.1898787429041136   T   T   T
 10.1222317346102439  7.5137756229781560 22.1899103942575486   T   T   T
 10.1222125501633169  2.5045965387706057 22.1897519215250902   T   T   T
  4.3379617743043815  2.5045813187545205 22.1900252419873638   T   T   T
  7.2302920769284427  2.5045835670187899 22.1899659430947587   T   T   T
 11.5682090869053926  5.0091567187340047 22.1899088280841532   T   T   T
  5.7841371713988483  5.0092457941907478 22.1899016570112231   T   T   T
  8.6762439558221303  5.0091589886128896 22.1898656228979867   T   T   T
  9.9894881037964183  3.0194439376199682 26.6836528472683696   T   T   T
  1.3240693558933554  1.9072238278069555 26.6700535960549594   T   T   T
