C2H6_Ag110
 1.0000000000000000
    12.2699999999999996    0.0000000000000000    0.0000000000000000
     0.0000000000000000    5.7841334701059592    0.0000000000000000
     0.0000000000000000    0.0000000000000000   34.3381001025794674
 Ag  C   H  
  24   2   6
Selective dynamics
Cartesian
  2.0449999999999999  1.4460333675264898 15.0000000000000053   F   F   F
  6.1349999999999998  1.4460333675264898 15.0000000000000053   F   F   F
 10.2249999999999979  1.4460333675264898 15.0000000000000053   F   F   F
  2.0449999999999999  4.3381001025794692 15.0000000000000053   F   F   F
  6.1349999999999998  4.3381001025794692 15.0000000000000053   F   F   F
 10.2249999999999979  4.3381001025794692 15.0000000000000053   F   F   F
  0.0000000000000000  0.0000000000000000 16.4460333675264891   F   F   F
  4.0899999999999999  0.0000000000000000 16.4460333675264891   F   F   F
  8.1799999999999997  0.0000000000000000 16.4460333675264891   F   F   F
  0.0000000000000000  2.8920667350529796 16.4460333675264891   F   F   F
  4.0899999999999999  2.8920667350529796 16.4460333675264891   F   F   F
  8.1799999999999997  2.8920667350529796 16.4460333675264891   F   F   F
  2.0451655363056709  1.4462016331333911 17.9907833391041869   T   T   T
  6.1349825470542845  1.4463042927635050 17.9910616008593180   T   T   T
 10.2249350612852581  1.4460544700825999 17.9905625200040511   T   T   T
  2.0451511938317286  4.3378868675490985 17.9907457389805892   T   T   T
  6.1351096113613863  4.3380245988854362 17.9906782475064517   T   T   T
 10.2250076558230596  4.3380502769818339 17.9905789084402947   T   T   T
  0.0001474622418897  5.7840806094417259 19.3508121913610296   T   T   T
  4.0893419322080184  5.7840838356308595 19.3495388851883519   T   T   T
  8.1800839093071467  0.0003734119075517 19.3505245766976763   T   T   T
  0.0002700358224096  2.8920806253962446 19.3507323950031278   T   T   T
  4.0897648562408637  2.8917500504983766 19.3509841223891748   T   T   T
  8.1798368879051608  2.8920541645163973 19.3509637948777105   T   T   T
  5.2725824736804059  1.6978851650673086 23.6126178229371497   T   T   T
  4.3947625045243148  2.7790967437349829 22.9859509531793336   T   T   T
  6.1040602469122875  2.1359816866002306 24.1822994477770337   T   T   T
  4.7009813125745517  1.0675092904367629 24.3078461860038395   T   T   T
  5.7080237743113660  1.0364784094272324 22.8505447652840630   T   T   T
  3.5469671668279594  2.3459440087792838 22.4301118857532380   T   T   T
  4.9627245139980500  3.4093875558090700 22.2820025966600817   T   T   T
  3.9676895114700406  3.4534858327751494 23.7448343316023163   T   T   T
