CH3CH2OH_Cu110
 1.0000000000000000
    14.4399999999999995    0.0000000000000000    0.0000000000000000
     0.0000000000000000   10.2106219203337467    0.0000000000000000
     0.0000000000000000    0.0000000000000000   33.8289832201251528
 Cu  C   O   H  
  64   2   1   6
Selective dynamics
Cartesian
  1.8049999999999999  1.2763277400417183 14.9999999999999982   F   F   F
  5.4150000000000018  1.2763277400417183 14.9999999999999982   F   F   F
  9.0250000000000021  1.2763277400417183 14.9999999999999982   F   F   F
 12.6349999999999998  1.2763277400417183 14.9999999999999982   F   F   F
  1.8049999999999999  3.8289832201251550 14.9999999999999982   F   F   F
  5.4150000000000018  3.8289832201251550 14.9999999999999982   F   F   F
  9.0250000000000021  3.8289832201251550 14.9999999999999982   F   F   F
 12.6349999999999998  3.8289832201251550 14.9999999999999982   F   F   F
  1.8049999999999999  6.3816387002085921 14.9999999999999982   F   F   F
  5.4150000000000018  6.3816387002085921 14.9999999999999982   F   F   F
  9.0250000000000021  6.3816387002085921 14.9999999999999982   F   F   F
 12.6349999999999998  6.3816387002085921 14.9999999999999982   F   F   F
  1.8049999999999999  8.9342941802920279 14.9999999999999982   F   F   F
  5.4150000000000018  8.9342941802920279 14.9999999999999982   F   F   F
  9.0250000000000021  8.9342941802920279 14.9999999999999982   F   F   F
 12.6349999999999998  8.9342941802920279 14.9999999999999982   F   F   F
  0.0000000000000000  0.0000000000000000 16.2763277400417152   F   F   F
  3.6099999999999999  0.0000000000000000 16.2763277400417152   F   F   F
  7.2199999999999998  0.0000000000000000 16.2763277400417152   F   F   F
 10.8300000000000036  0.0000000000000000 16.2763277400417152   F   F   F
  0.0000000000000000  2.5526554800834367 16.2763277400417152   F   F   F
  3.6099999999999999  2.5526554800834367 16.2763277400417152   F   F   F
  7.2199999999999998  2.5526554800834367 16.2763277400417152   F   F   F
 10.8300000000000036  2.5526554800834367 16.2763277400417152   F   F   F
  0.0000000000000000  5.1053109601668734 16.2763277400417152   F   F   F
  3.6099999999999999  5.1053109601668734 16.2763277400417152   F   F   F
  7.2199999999999998  5.1053109601668734 16.2763277400417152   F   F   F
 10.8300000000000036  5.1053109601668734 16.2763277400417152   F   F   F
  0.0000000000000000  7.6579664402503100 16.2763277400417152   F   F   F
  3.6099999999999999  7.6579664402503100 16.2763277400417152   F   F   F
  7.2199999999999998  7.6579664402503100 16.2763277400417152   F   F   F
 10.8300000000000036  7.6579664402503100 16.2763277400417152   F   F   F
  1.8072602567788181  1.2766845780933822 17.6165648284664442   T   T   T
  5.4047049712670558  1.2737721110390305 17.6083550793744692   T   T   T
  9.0341068012766765  1.2735485159389386 17.6066068511699676   T   T   T
 12.6353764943713607  1.2758118755170111 17.6147953819680545   T   T   T
  1.8009044420249471  3.8266070450035889 17.6097078638305788   T   T   T
  5.4254240306156074  3.8354818564563868 17.6128688909040889   T   T   T
  9.0122406706240383  3.8351852946459029 17.6114333106742933   T   T   T
 12.6365706765314449  3.8287592491111608 17.6133320955331136   T   T   T
  1.7998974427787129  6.3843170116876440 17.6092462113712358   T   T   T
  5.4249069160187648  6.3776635864061877 17.6011345235188443   T   T   T
  9.0164659388999127  6.3796742779098494 17.6043237828132568   T   T   T
 12.6367122178069611  6.3824395033651928 17.6132765343359132   T   T   T
  1.8065751173429536  8.9339228367344958 17.6155362821333448   T   T   T
  5.4062448145028208  8.9343042566864384 17.6122636022747407   T   T   T
  9.0341163474050106  8.9377018418766809 17.6085485526390890   T   T   T
 12.6341891615469173  8.9339437278165388 17.6152778889100219   T   T   T
  0.0009782384546131 10.2104345802739314 18.7765387227628615   T   T   T
  3.6082513311633266 10.2085856621572830 18.7799002131911870   T   T   T
  7.2195769242310330  0.0028084473177242 18.7717542793880305   T   T   T
 10.8321268189658895 10.2103778360292967 18.7794711340583831   T   T   T
 14.4395631957367971  2.5518252956613732 18.7773878145403224   T   T   T
  3.6150155603260266  2.5620496877594388 18.7757126045765723   T   T   T
  7.2190741523068320  2.5228866773267207 18.7510923318752347   T   T   T
 10.8260990413033475  2.5574357237829775 18.7690019322837180   T   T   T
  0.0009701503693644  5.1052567694510342 18.7761970574092238   T   T   T
  3.5989648375054673  5.1083119532825245 18.7677423804552390   T   T   T
  7.2568108125479736  5.0934239119360658 18.8495737442334530   T   T   T
 10.8288380202278969  5.1067186986851505 18.7671174119015411   T   T   T
 14.4396875840998984  7.6591045152008626 18.7771655387327634   T   T   T
  3.6132857488194579  7.6481536705305784 18.7761772651597205   T   T   T
  7.2225805464333854  7.6932551066688291 18.7509928220415247   T   T   T
 10.8249304060783285  7.6523209934152572 18.7734756434107908   T   T   T
  8.4480122798874646  4.9866496396147788 22.3061300135162135   T   T   T
  6.9542948628544901  5.0515090256302955 22.1355153152858932   T   T   T
  6.6352771464893880  5.5610515192476520 20.7949124551611995   T   T   T
  8.9082604187216887  5.9682277668028494 22.1468218241907344   T   T   T
  8.6676984713146474  4.6645897734086450 23.3325363071170528   T   T   T
  8.9022213199565936  4.2654383199162069 21.6173803287594346   T   T   T
  6.4973261859643072  5.7419002738828633 22.8618490630772193   T   T   T
  6.4856435340706335  4.0613376185025469 22.2600787211090356   T   T   T
  5.6623331200454130  5.5892335461525944 20.6685972712843942   T   T   T
