HCOOH_Rh111
 1.0000000000000000
    10.7565083554097622    0.0000000000000000    0.0000000000000000
     0.0000000000000000    9.3154094918044255    0.0000000000000000
     0.0000000000000000    0.0000000000000000   36.5869892211844387
 Rh  O   C   H  
  64   2   1   2
Selective dynamics
Cartesian
  0.0000000000000000  0.0000000000000000 15.0000000000000000   F   F   F
  2.6891270888524406  0.0000000000000000 15.0000000000000000   F   F   F
  5.3782541777048811  0.0000000000000000 15.0000000000000000   F   F   F
  8.0673812665573212  0.0000000000000000 15.0000000000000000   F   F   F
  1.3445635444262203  2.3288523729511064 15.0000000000000000   F   F   F
  4.0336906332786606  2.3288523729511064 15.0000000000000000   F   F   F
  6.7228177221311016  2.3288523729511064 15.0000000000000000   F   F   F
  9.4119448109835417  2.3288523729511064 15.0000000000000000   F   F   F
  0.0000000000000000  4.6577047459022127 15.0000000000000000   F   F   F
  2.6891270888524406  4.6577047459022127 15.0000000000000000   F   F   F
  5.3782541777048811  4.6577047459022127 15.0000000000000000   F   F   F
  8.0673812665573212  4.6577047459022127 15.0000000000000000   F   F   F
  1.3445635444262203  6.9865571188533195 15.0000000000000000   F   F   F
  4.0336906332786606  6.9865571188533195 15.0000000000000000   F   F   F
  6.7228177221311016  6.9865571188533195 15.0000000000000000   F   F   F
  9.4119448109835417  6.9865571188533195 15.0000000000000000   F   F   F
  1.3445635444262203  0.7762841243170354 17.1956630737281486   F   F   F
  4.0336906332786606  0.7762841243170354 17.1956630737281486   F   F   F
  6.7228177221311016  0.7762841243170354 17.1956630737281486   F   F   F
  9.4119448109835417  0.7762841243170354 17.1956630737281486   F   F   F
  0.0000000000000000  3.1051364972681417 17.1956630737281486   F   F   F
  2.6891270888524406  3.1051364972681417 17.1956630737281486   F   F   F
  5.3782541777048811  3.1051364972681417 17.1956630737281486   F   F   F
  8.0673812665573212  3.1051364972681417 17.1956630737281486   F   F   F
  1.3445635444262203  5.4339888702192489 17.1956630737281486   F   F   F
  4.0336906332786606  5.4339888702192489 17.1956630737281486   F   F   F
  6.7228177221311016  5.4339888702192489 17.1956630737281486   F   F   F
  9.4119448109835417  5.4339888702192489 17.1956630737281486   F   F   F
  0.0000000000000000  7.7628412431703548 17.1956630737281486   F   F   F
  2.6891270888524406  7.7628412431703548 17.1956630737281486   F   F   F
  5.3782541777048811  7.7628412431703548 17.1956630737281486   F   F   F
  8.0673812665573212  7.7628412431703548 17.1956630737281486   F   F   F
  0.0058808397427520  1.5528865153911375 19.4032820810971458   T   T   T
  2.6995139380576276  1.5618474031921912 19.4443684931412797   T   T   T
  5.3703602663577783  1.5564500362255635 19.4280311182214973   T   T   T
  8.0660949649088707  1.5507109290001582 19.4017516003491757   T   T   T
  1.3469647246605849  3.8781170520023132 19.4085761846956828   T   T   T
  4.0312790440980066  3.8666341071547841 19.4411904690854627   T   T   T
  6.7210948524172220  3.8811159056051778 19.4020274110636137   T   T   T
  9.4122954532965419  3.8804038960850451 19.4014311290846102   T   T   T
  0.0004626789372952  6.2078670981006052 19.4011602081419028   T   T   T
  2.6897030442509235  6.2058465259833619 19.4003324349173489   T   T   T
  5.3753982010265027  6.2092634333546295 19.4002595835833276   T   T   T
  8.0675472213678177  6.2103465850461550 19.3988970798261064   T   T   T
  1.3455583355590455  8.5438504970329472 19.4016459860215811   T   T   T
  4.0323704273681944  8.5413772269252206 19.4032558656277772   T   T   T
  6.7231088934920926  8.5416338340282092 19.4005608927248439   T   T   T
  9.4138565867740436  8.5405239203881340 19.4023800731142906   T   T   T
  0.0027892419021669  0.0007107799202257 21.5898793691599806   T   T   T
  2.6842200232744249  9.2962527288916110 21.5834192446490860   T   T   T
  5.3874072407818145  9.2957516360078412 21.5819594342693293   T   T   T
  8.0662671504152037  0.0001519863659332 21.5881896905526567   T   T   T
  1.3363372538457889  2.3300697677844924 21.6036247816273459   T   T   T
  4.0304151133189823  2.3254160342855950 21.6956050485683249   T   T   T
  6.7441418501994601  2.3289671768787210 21.5783340595300110   T   T   T
  9.4143404090910803  2.3295679508176028 21.5880102381117460   T   T   T
 10.7561191911491232  4.6566635311234785 21.5931894897700225   T   T   T
  2.6794473463000208  4.6710198424119032 21.5887113413296596   T   T   T
  5.3896555063562657  4.6714379640079295 21.5874005676234901   T   T   T
  8.0671546298386989  4.6574975841404482 21.5876868455299054   T   T   T
  1.3395883270307498  6.9859804275459307 21.5866440802193864   T   T   T
  4.0317233254591400  6.9836011759008283 21.5851913213067554   T   T   T
  6.7256719855747464  6.9844954159732504 21.5865405096679126   T   T   T
  9.4102084485373396  6.9857119015903404 21.5893935633744256   T   T   T
  2.1771150821963956  2.3423281098367146 24.6184018330636327   T   T   T
  4.3131924602847036  2.2438195224634350 23.8237274592291577   T   T   T
  3.4720879051726490  2.2485710003610340 24.7463064439527365   T   T   T
  1.9483943696099688  2.3913752358323297 23.5957520531191989   T   T   T
  3.8232588866025585  2.1603842139139449 25.7835937237462254   T   T   T
