H2O_Cu100
 1.0000000000000000
    10.2106219203337467    0.0000000000000000    0.0000000000000000
     0.0000000000000000   10.2106219203337467    0.0000000000000000
     0.0000000000000000    0.0000000000000000   35.4149999999999991
 Cu  O   H  
  64   1   2
Selective dynamics
Cartesian
  1.2763277400417183  1.2763277400417183 15.0000000000000000   F   F   F
  3.8289832201251550  1.2763277400417183 15.0000000000000000   F   F   F
  6.3816387002085921  1.2763277400417183 15.0000000000000000   F   F   F
  8.9342941802920279  1.2763277400417183 15.0000000000000000   F   F   F
  1.2763277400417183  3.8289832201251550 15.0000000000000000   F   F   F
  3.8289832201251550  3.8289832201251550 15.0000000000000000   F   F   F
  6.3816387002085921  3.8289832201251550 15.0000000000000000   F   F   F
  8.9342941802920279  3.8289832201251550 15.0000000000000000   F   F   F
  1.2763277400417183  6.3816387002085921 15.0000000000000000   F   F   F
  3.8289832201251550  6.3816387002085921 15.0000000000000000   F   F   F
  6.3816387002085921  6.3816387002085921 15.0000000000000000   F   F   F
  8.9342941802920279  6.3816387002085921 15.0000000000000000   F   F   F
  1.2763277400417183  8.9342941802920279 15.0000000000000000   F   F   F
  3.8289832201251550  8.9342941802920279 15.0000000000000000   F   F   F
  6.3816387002085921  8.9342941802920279 15.0000000000000000   F   F   F
  8.9342941802920279  8.9342941802920279 15.0000000000000000   F   F   F
  0.0000000000000000  0.0000000000000000 16.8049999999999997   F   F   F
  2.5526554800834367  0.0000000000000000 16.8049999999999997   F   F   F
  5.1053109601668734  0.0000000000000000 16.8049999999999997   F   F   F
  7.6579664402503100  0.0000000000000000 16.8049999999999997   F   F   F
  0.0000000000000000  2.5526554800834367 16.8049999999999997   F   F   F
  2.5526554800834367  2.5526554800834367 16.8049999999999997   F   F   F
  5.1053109601668734  2.5526554800834367 16.8049999999999997   F   F   F
  7.6579664402503100  2.5526554800834367 16.8049999999999997   F   F   F
  0.0000000000000000  5.1053109601668734 16.8049999999999997   F   F   F
  2.5526554800834367  5.1053109601668734 16.8049999999999997   F   F   F
  5.1053109601668734  5.1053109601668734 16.8049999999999997   F   F   F
  7.6579664402503100  5.1053109601668734 16.8049999999999997   F   F   F
  0.0000000000000000  7.6579664402503100 16.8049999999999997   F   F   F
  2.5526554800834367  7.6579664402503100 16.8049999999999997   F   F   F
  5.1053109601668734  7.6579664402503100 16.8049999999999997   F   F   F
  7.6579664402503100  7.6579664402503100 16.8049999999999997   F   F   F
  1.2897756697256135  1.2901136398399125 18.6617813766984568   T   T   T
  3.8169429489444289  1.2886091237841213 18.6573012523882085   T   T   T
  6.3846205886069010  1.2691834057382128 18.6269606300721726   T   T   T
  8.9351811189813084  1.2721904818792016 18.6307143786413825   T   T   T
  1.2889401798585114  3.8156041041624862 18.6603973814037367   T   T   T
  3.8175912596436987  3.8169698759965298 18.6561357181328376   T   T   T
  6.3845763274782081  3.8361261920366054 18.6271846711431621   T   T   T
  8.9349653513358600  3.8331438327831377 18.6309484668619731   T   T   T
  1.2700927525118593  6.3846572545322742 18.6266708611096021   T   T   T
  3.8358220965621475  6.3848009535635839 18.6278382737965913   T   T   T
  6.3830585315341981  6.3839133180750594 18.6383564436705171   T   T   T
  8.9318930968031776  6.3825539030418472 18.6378370098769643   T   T   T
  1.2716202912400731  8.9336953462767816 18.6287617376973778   T   T   T
  3.8348164641951628  8.9332827961478305 18.6296055577236110   T   T   T
  6.3825807908960979  8.9323193465005790 18.6385650850028313   T   T   T
  8.9323356258345683  8.9331647719697411 18.6375616649058173   T   T   T
  0.0007626806962690 10.2098997328090562 20.4133522116209676   T   T   T
  2.5539074075498807 10.1751247004766316 20.3994376891378444   T   T   T
  5.1037676425214258  0.0018955018259899 20.4167185158423692   T   T   T
  7.6570189009625915  0.0015759152989020 20.4173073064436927   T   T   T
 10.1763006841951533  2.5527534952030764 20.4075696129348572   T   T   T
  2.5428363018794395  2.5525292618071997 20.5115698022798902   T   T   T
  5.1456723536963249  2.5523900499643406 20.3914809710581366   T   T   T
  7.6591156893956667  2.5525114221324108 20.4151053154796145   T   T   T
  0.0010671855781454  5.1060086897163828 20.4134059581954901   T   T   T
  2.5530762390447439  5.1450730222959669 20.3921024144538698   T   T   T
  5.1030007890074200  5.1045609936337595 20.4159951974135083   T   T   T
  7.6561833857292036  5.1031978316090454 20.4176510144650507   T   T   T
  0.0014783344917659  7.6579576659869613 20.4159084187637525   T   T   T
  2.5532271557378117  7.6592700010459476 20.4165420290283706   T   T   T
  5.1038655246859568  7.6584124663710735 20.4193057705154075   T   T   T
  7.6581137400038299  7.6579400092195726 20.4180043436439824   T   T   T
  2.7488759951869564  2.6028994182303999 22.6597425300915916   T   T   T
  3.2085736971457459  3.4499815603459880 22.8414307505816723   T   T   T
  3.3999050695938258  1.9010693485258450 22.8718906387453877   T   T   T
