NO_Ir110
 1.0000000000000000
    11.5199999999999996    0.0000000000000000    0.0000000000000000
     0.0000000000000000    5.4305800795126853    0.0000000000000000
     0.0000000000000000    0.0000000000000000   34.0729350596345171
 Ir  N   O  
  24   1   1
Selective dynamics
Cartesian
  1.9199999999999999  1.3576450198781711 15.0000000000000018   F   F   F
  5.7599999999999989  1.3576450198781711 15.0000000000000018   F   F   F
  9.5999999999999996  1.3576450198781711 15.0000000000000018   F   F   F
  1.9199999999999999  4.0729350596345135 15.0000000000000018   F   F   F
  5.7599999999999989  4.0729350596345135 15.0000000000000018   F   F   F
  9.5999999999999996  4.0729350596345135 15.0000000000000018   F   F   F
  0.0000000000000000  0.0000000000000000 16.3576450198781735   F   F   F
  3.8399999999999999  0.0000000000000000 16.3576450198781735   F   F   F
  7.6799999999999997  0.0000000000000000 16.3576450198781735   F   F   F
  0.0000000000000000  2.7152900397563422 16.3576450198781735   F   F   F
  3.8399999999999999  2.7152900397563422 16.3576450198781735   F   F   F
  7.6799999999999997  2.7152900397563422 16.3576450198781735   F   F   F
  1.8807612483836389  1.3535220880857461 17.7020448296295072   T   T   T
  5.7975404189865340  1.3533627933734771 17.7034902673816390   T   T   T
  9.5986125728611622  1.3537137026265293 17.7813014544054013   T   T   T
  1.9212668792804590  4.0673739223515035 17.7873741991731222   T   T   T
  5.7539903379366084  4.0672393255870745 17.7894870868027652   T   T   T
  9.5996624840323026  4.0696494192466073 17.7663011793019834   T   T   T
  0.0067473529844542  5.4250443617895785 19.0109024881229871   T   T   T
  3.8379997956517471  5.4066526600281399 19.0336376940863659   T   T   T
  7.6712331949537047  5.4224493802802050 19.0102266612445980   T   T   T
  0.0061040882595763  2.7124624691223671 19.0113527252281749   T   T   T
  3.8375002109077236  2.7183836757242719 19.0390202087807090   T   T   T
  7.6721621057337881  2.7128372358377879 19.0100499745219871   T   T   T
  3.8509624346550209  1.3422700815293402 20.4350009496589742   T   T   T
  3.8611201084479987  1.3297190856171173 21.6515526053948832   T   T   T
