H2S_Ag111
 1.0000000000000000
     8.6762002051589384    0.0000000000000000    0.0000000000000000
     4.3381001025794710    7.5138097859873962    0.0000000000000000
     0.0000000000000000    0.0000000000000000   37.0840878029567094
 Ag  S   H  
  36   1   2
Selective dynamics
Cartesian
  0.0000000000000000  0.0000000000000000 14.9999999999999982   F   F   F
  2.8920667350529787  0.0000000000000000 14.9999999999999982   F   F   F
  5.7841334701059575  0.0000000000000000 14.9999999999999982   F   F   F
  1.4460333675264903  2.5046032619957987 14.9999999999999982   F   F   F
  4.3381001025794692  2.5046032619957987 14.9999999999999982   F   F   F
  7.2301668376324475  2.5046032619957987 14.9999999999999982   F   F   F
  2.8920667350529805  5.0092065239915975 14.9999999999999982   F   F   F
  5.7841334701059592  5.0092065239915975 14.9999999999999982   F   F   F
  8.6762002051589384  5.0092065239915975 14.9999999999999982   F   F   F
  1.4460333675264898  0.8348677539985995 17.3613626009855686   F   F   F
  4.3381001025794683  0.8348677539985995 17.3613626009855686   F   F   F
  7.2301668376324484  0.8348677539985995 17.3613626009855686   F   F   F
  2.8920667350529801  3.3394710159943979 17.3613626009855686   F   F   F
  5.7841334701059592  3.3394710159943979 17.3613626009855686   F   F   F
  8.6762002051589384  3.3394710159943979 17.3613626009855686   F   F   F
  4.3381001025794710  5.8440742779901944 17.3613626009855686   F   F   F
  7.2301668376324493  5.8440742779901944 17.3613626009855686   F   F   F
 10.1222335726854276  5.8440742779901944 17.3613626009855686   F   F   F
  8.6762465723469191  1.6698427482614031 19.7667211467479689   T   T   T
  2.8933438672645777  1.6703831036766001 19.7643565538068806   T   T   T
  5.7827073121217207  1.6704486738378885 19.7650807358353369   T   T   T
 10.1195152600607035  4.1758358607083563 19.7729878205843796   T   T   T
  4.3376127284914556  4.1728202090665434 19.7636904484069191   T   T   T
  7.2331037492974390  4.1759614925664961 19.7741863618025739   T   T   T
 11.5685747192163220  6.6789790558115634 19.7660890876151178   T   T   T
  5.7842709687651332  6.6790078049467487 19.7666814446418968   T   T   T
  8.6758199917460459  6.6759981518570584 19.7734718376703213   T   T   T
  0.0026668033599395  0.0028934714499717 22.1957109397141110   T   T   T
  2.8899533212348940  0.0025632313012917 22.1837138130567624   T   T   T
  5.7858259732795672  0.0023714903185969 22.1858162398202907   T   T   T
  1.4472239733314405  2.5001573965360033 22.1824872356327099   T   T   T
  4.3394820347788006  2.5060896573494151 22.1886111917385023   T   T   T
  7.2275333563750559  2.4989174830183551 22.1795773019750264   T   T   T
  2.8955488557808700  5.0092404594536131 22.1857374054737839   T   T   T
  5.7754761647382518  5.0090628628132743 22.1756599167397681   T   T   T
  8.6807000889073347  5.0118459794892765 22.1966957045382465   T   T   T
  8.0832812006008172  4.5344185808179756 25.5600016131858681   T   T   T
  8.3256237936612845  3.3228418653436416 25.0182758543935861   T   T   T
  6.9320821894899805  4.6250702997312381 24.8596748150558788   T   T   T
