N2_Au100
 1.0000000000000000
    11.5399826689644573    0.0000000000000000    0.0000000000000000
     0.0000000000000000   11.5399826689644573    0.0000000000000000
     0.0000000000000000    0.0000000000000000   36.1199999999999974
 Au  N  
  64   2
Selective dynamics
Cartesian
  1.4424978336205572  1.4424978336205572 14.9999999999999982   F   F   F
  4.3274935008616717  1.4424978336205572 14.9999999999999982   F   F   F
  7.2124891681027856  1.4424978336205572 14.9999999999999982   F   F   F
 10.0974848353439004  1.4424978336205572 14.9999999999999982   F   F   F
  1.4424978336205572  4.3274935008616717 14.9999999999999982   F   F   F
  4.3274935008616717  4.3274935008616717 14.9999999999999982   F   F   F
  7.2124891681027856  4.3274935008616717 14.9999999999999982   F   F   F
 10.0974848353439004  4.3274935008616717 14.9999999999999982   F   F   F
  1.4424978336205572  7.2124891681027856 14.9999999999999982   F   F   F
  4.3274935008616717  7.2124891681027856 14.9999999999999982   F   F   F
  7.2124891681027856  7.2124891681027856 14.9999999999999982   F   F   F
 10.0974848353439004  7.2124891681027856 14.9999999999999982   F   F   F
  1.4424978336205572 10.0974848353439004 14.9999999999999982   F   F   F
  4.3274935008616717 10.0974848353439004 14.9999999999999982   F   F   F
  7.2124891681027856 10.0974848353439004 14.9999999999999982   F   F   F
 10.0974848353439004 10.0974848353439004 14.9999999999999982   F   F   F
  0.0000000000000000  0.0000000000000000 17.0399999999999991   F   F   F
  2.8849956672411143  0.0000000000000000 17.0399999999999991   F   F   F
  5.7699913344822287  0.0000000000000000 17.0399999999999991   F   F   F
  8.6549870017233435  0.0000000000000000 17.0399999999999991   F   F   F
  0.0000000000000000  2.8849956672411143 17.0399999999999991   F   F   F
  2.8849956672411143  2.8849956672411143 17.0399999999999991   F   F   F
  5.7699913344822287  2.8849956672411143 17.0399999999999991   F   F   F
  8.6549870017233435  2.8849956672411143 17.0399999999999991   F   F   F
  0.0000000000000000  5.7699913344822287 17.0399999999999991   F   F   F
  2.8849956672411143  5.7699913344822287 17.0399999999999991   F   F   F
  5.7699913344822287  5.7699913344822287 17.0399999999999991   F   F   F
  8.6549870017233435  5.7699913344822287 17.0399999999999991   F   F   F
  0.0000000000000000  8.6549870017233435 17.0399999999999991   F   F   F
  2.8849956672411143  8.6549870017233435 17.0399999999999991   F   F   F
  5.7699913344822287  8.6549870017233435 17.0399999999999991   F   F   F
  8.6549870017233435  8.6549870017233435 17.0399999999999991   F   F   F
  1.4427730694842105  1.4427948884512445 19.1851005225742384   T   T   T
  4.3274893887793429  1.4427138592302382 19.1847771797396760   T   T   T
  7.2122169371023865  1.4427966578477998 19.1850950426252638   T   T   T
 10.0974837001196249  1.4424891471342811 19.1848254784814927   T   T   T
  1.4426555430408659  4.3274713811596390 19.1848417959700726   T   T   T
  4.3275072696133270  4.3274728305765562 19.1847303850606288   T   T   T
  7.2123282930535311  4.3274782573510677 19.1848407960438188   T   T   T
 10.0974878784145474  4.3276702879873232 19.1849514217446497   T   T   T
  1.4426508885387801  7.2126018312849922 19.1848203815186480   T   T   T
  4.3274886919597204  7.2126118462757542 19.1846856993471064   T   T   T
  7.2123268540403807  7.2125904439341744 19.1848454759248241   T   T   T
 10.0974873590764798  7.2122895011763166 19.1849207304425740   T   T   T
  1.4428545511055486 10.0971216365089358 19.1851420278551750   T   T   T
  4.3274866926009867 10.0971609322548197 19.1848345046103326   T   T   T
  7.2121300302086855 10.0971211681486768 19.1851510394423279   T   T   T
 10.0974853445140571 10.0975090578872599 19.1847968461243568   T   T   T
  0.0000012906331921 11.5399688988561628 21.3077784854344152   T   T   T
  2.8850834079906504 11.5399324532804890 21.3077823808087636   T   T   T
  5.7699003995635891 11.5399214208174854 21.3077837998367592   T   T   T
  8.6549902715210099 11.5399699278953065 21.3077762643621611   T   T   T
  0.0002627626984635  2.8851411052441396 21.3077358491402116   T   T   T
  2.8854478916015260  2.8862733217521606 21.3088323465836638   T   T   T
  5.7695302957536292  2.8862640482075768 21.3088572938053709   T   T   T
  8.6547320364426028  2.8851295677427955 21.3077394771272317   T   T   T
 11.5398085476186285  5.7699990540459858 21.3072659708420638   T   T   T
  2.8856160108478570  5.7702067517371081 21.3050417583102991   T   T   T
  5.7693635608624705  5.7701802205581672 21.3050361849412297   T   T   T
  8.6551435351821073  5.7700109813587348 21.3072809591044603   T   T   T
  0.0003072950163127  8.6548251063325061 21.3076976893251810   T   T   T
  2.8854793430559242  8.6537402130844736 21.3085329209543097   T   T   T
  5.7695096073337506  8.6537554575893747 21.3084509051835482   T   T   T
  8.6546517352835064  8.6548251141875259 21.3077002806807663   T   T   T
  3.7560660070049341  5.9678872304255588 25.4342577594709809   T   T   T
  4.8680517197894302  5.9904910981767712 25.4289180070518057   T   T   T
