C2H4_Rh100
 1.0000000000000000
     8.0673812665573212    0.0000000000000000    0.0000000000000000
     0.0000000000000000    8.0673812665573212    0.0000000000000000
     0.0000000000000000    0.0000000000000000   35.7044999999999959
 Rh  C   H  
  36   2   4
Selective dynamics
Cartesian
  1.3445635444262201  1.3445635444262201 14.9999999999999964   F   F   F
  4.0336906332786597  1.3445635444262201 14.9999999999999964   F   F   F
  6.7228177221311043  1.3445635444262201 14.9999999999999964   F   F   F
  1.3445635444262201  4.0336906332786597 14.9999999999999964   F   F   F
  4.0336906332786597  4.0336906332786597 14.9999999999999964   F   F   F
  6.7228177221311043  4.0336906332786597 14.9999999999999964   F   F   F
  1.3445635444262201  6.7228177221311043 14.9999999999999964   F   F   F
  4.0336906332786597  6.7228177221311043 14.9999999999999964   F   F   F
  6.7228177221311043  6.7228177221311043 14.9999999999999964   F   F   F
  0.0000000000000000  0.0000000000000000 16.9014999999999986   F   F   F
  2.6891270888524401  0.0000000000000000 16.9014999999999986   F   F   F
  5.3782541777048802  0.0000000000000000 16.9014999999999986   F   F   F
  0.0000000000000000  2.6891270888524401 16.9014999999999986   F   F   F
  2.6891270888524401  2.6891270888524401 16.9014999999999986   F   F   F
  5.3782541777048802  2.6891270888524401 16.9014999999999986   F   F   F
  0.0000000000000000  5.3782541777048802 16.9014999999999986   F   F   F
  2.6891270888524401  5.3782541777048802 16.9014999999999986   F   F   F
  5.3782541777048802  5.3782541777048802 16.9014999999999986   F   F   F
  1.3510094824739540  1.3570269093368654 18.8486124299944713   T   T   T
  4.0228818333762915  1.3605668297967919 18.8562455118639463   T   T   T
  6.7123544738570349  1.3439624227117368 18.8297323656397886   T   T   T
  1.3339574065888775  4.0298748431451274 18.8228631656451064   T   T   T
  4.0196201723275413  4.0450958964924446 18.8514855514904518   T   T   T
  6.7216242594534474  4.0470275485339844 18.8456154691952662   T   T   T
  1.3494308648656239  6.7211739550473650 18.8478444291569183   T   T   T
  4.0271575677243492  6.7259680433994129 18.8522747780857785   T   T   T
  6.7275303696618955  6.7213594093586586 18.8505769472914189   T   T   T
  0.0070862515990772  0.0171855886373676 20.6808398593930818   T   T   T
  2.6880991884727687  0.0150475240297973 20.6883041235314522   T   T   T
  5.3667113644841207  8.0644033201592489 20.6970158171522698   T   T   T
  8.0343929884014891  2.6711494963500990 20.6517365789195040   T   T   T
  2.6798941448387676  2.7207329655983692 20.7722557980190921   T   T   T
  5.3801562861837722  2.7083986374920186 20.6852539017758552   T   T   T
  0.0128069470173652  5.3856221054611781 20.7598520832982558   T   T   T
  2.6810792792330918  5.3879853436211134 20.7733642961962666   T   T   T
  5.3805054556679526  5.3890573882086450 20.6830880031044515   T   T   T
  1.4495070790727058  5.2048844743969740 22.5137641171322649   T   T   T
  2.4798955832415457  4.1561937467828081 22.5229370892134106   T   T   T
  0.3714051357689930  4.8115144088996828 22.5663986222735637   T   T   T
  1.5839734767131322  6.0655274648793194 23.1691551137462888   T   T   T
  2.0693940493358385  3.0884332585169081 22.5921923347922835   T   T   T
  3.3399705175641965  4.2904356959945051 23.1784053874400904   T   T   T
