CH3_Ag110
 1.0000000000000000
    12.2699999999999996    0.0000000000000000    0.0000000000000000
     0.0000000000000000    5.7841334701059592    0.0000000000000000
     0.0000000000000000    0.0000000000000000   34.3381001025794674
 Ag  C   H  
  24   1   3
Selective dynamics
Cartesian
  2.0449999999999999  1.4460333675264898 15.0000000000000053   F   F   F
  6.1349999999999998  1.4460333675264898 15.0000000000000053   F   F   F
 10.2249999999999979  1.4460333675264898 15.0000000000000053   F   F   F
  2.0449999999999999  4.3381001025794692 15.0000000000000053   F   F   F
  6.1349999999999998  4.3381001025794692 15.0000000000000053   F   F   F
 10.2249999999999979  4.3381001025794692 15.0000000000000053   F   F   F
  0.0000000000000000  0.0000000000000000 16.4460333675264891   F   F   F
  4.0899999999999999  0.0000000000000000 16.4460333675264891   F   F   F
  8.1799999999999997  0.0000000000000000 16.4460333675264891   F   F   F
  0.0000000000000000  2.8920667350529796 16.4460333675264891   F   F   F
  4.0899999999999999  2.8920667350529796 16.4460333675264891   F   F   F
  8.1799999999999997  2.8920667350529796 16.4460333675264891   F   F   F
  2.0505571239784905  1.4534287831259876 17.9669428912780624   T   T   T
  6.1297794602126645  1.4541716134235807 17.9690987463631089   T   T   T
 10.2271395749977518  1.4447443782718106 17.9854839927017061   T   T   T
  2.0611229043591242  4.3440063479994393 17.9761270485862035   T   T   T
  6.1197750106582278  4.3457755989737938 17.9778477396080909   T   T   T
 10.2271698216198921  4.3412474958807277 17.9841987234863225   T   T   T
  0.0188911433211076  0.0008920708451627 19.3425889639467741   T   T   T
  4.0866744638640631  0.0226151532244276 19.3423510805324170   T   T   T
  8.1662096511488773  0.0027049505260786 19.3419711465190431   T   T   T
  0.0063698968907687  2.8958303150712146 19.3444849383320658   T   T   T
  4.0906998487332640  2.8982680135522751 19.4804665340998930   T   T   T
  8.1789475894342889  2.8974714474747740 19.3420966147371693   T   T   T
  4.1660348394234354  2.7252769360635556 21.6115083095072968   T   T   T
  5.1486597435577623  2.3289656383086252 21.8761268509714277   T   T   T
  3.3488619334035290  2.0690163925580185 21.9193297978395449   T   T   T
  4.0251697220021700  3.7485386517613879 21.9698483630699890   T   T   T
