CH4_Cu110
 1.0000000000000000
    10.8300000000000001    0.0000000000000000    0.0000000000000000
     0.0000000000000000    5.1053109601668734    0.0000000000000000
     0.0000000000000000    0.0000000000000000   33.8289832201251528
 Cu  C   H  
  24   1   4
Selective dynamics
Cartesian
  1.8049999999999999  1.2763277400417183 14.9999999999999982   F   F   F
  5.4149999999999991  1.2763277400417183 14.9999999999999982   F   F   F
  9.0249999999999986  1.2763277400417183 14.9999999999999982   F   F   F
  1.8049999999999999  3.8289832201251550 14.9999999999999982   F   F   F
  5.4149999999999991  3.8289832201251550 14.9999999999999982   F   F   F
  9.0249999999999986  3.8289832201251550 14.9999999999999982   F   F   F
  0.0000000000000000  0.0000000000000000 16.2763277400417152   F   F   F
  3.6099999999999999  0.0000000000000000 16.2763277400417152   F   F   F
  7.2199999999999998  0.0000000000000000 16.2763277400417152   F   F   F
  0.0000000000000000  2.5526554800834367 16.2763277400417152   F   F   F
  3.6099999999999999  2.5526554800834367 16.2763277400417152   F   F   F
  7.2199999999999998  2.5526554800834367 16.2763277400417152   F   F   F
  1.8050744970948822  1.2762234712673428 17.6150157160259617   T   T   T
  5.4150331705022836  1.2763639915039742 17.6147112131898176   T   T   T
  9.0249814369201822  1.2763441361471783 17.6148313715276359   T   T   T
  1.8052583874800490  3.8290606097125006 17.6159401715955823   T   T   T
  5.4148040333535974  3.8288493049961940 17.6157779942027339   T   T   T
  9.0250061936684247  3.8289817315180001 17.6147529950538058   T   T   T
  0.0001099618674380  5.1052993987587660 18.7752202651286630   T   T   T
  3.6100365457163841  0.0000531938278350 18.7747005891576251   T   T   T
  7.2198177028279398  5.1052676724713457 18.7755206723585140   T   T   T
  0.0001685487346380  2.5527354884385969 18.7754603280366048   T   T   T
  3.6098893634809466  2.5526184593643886 18.7747866317298531   T   T   T
  7.2199524386889928  2.5526769854651761 18.7751902204084509   T   T   T
  3.6385601600588040  1.1838272293206771 22.3489132528927499   T   T   T
  4.2980172624855078  1.7790746865945448 21.7081769579553807   T   T   T
  3.2929282174073227  1.8017041975775963 23.1867575764803391   T   T   T
  4.1900819798883893  0.3205744933860985 22.7377501389052306   T   T   T
  2.7739186874249184  0.8368320827033449 21.7738865891634248   T   T   T
