H2S_Cu110
 1.0000000000000000
    10.8300000000000001    0.0000000000000000    0.0000000000000000
     0.0000000000000000    5.1053109601668734    0.0000000000000000
     0.0000000000000000    0.0000000000000000   33.8289832201251528
 Cu  S   H  
  24   1   2
Selective dynamics
Cartesian
  1.8049999999999999  1.2763277400417183 14.9999999999999982   F   F   F
  5.4149999999999991  1.2763277400417183 14.9999999999999982   F   F   F
  9.0249999999999986  1.2763277400417183 14.9999999999999982   F   F   F
  1.8049999999999999  3.8289832201251550 14.9999999999999982   F   F   F
  5.4149999999999991  3.8289832201251550 14.9999999999999982   F   F   F
  9.0249999999999986  3.8289832201251550 14.9999999999999982   F   F   F
  0.0000000000000000  0.0000000000000000 16.2763277400417152   F   F   F
  3.6099999999999999  0.0000000000000000 16.2763277400417152   F   F   F
  7.2199999999999998  0.0000000000000000 16.2763277400417152   F   F   F
  0.0000000000000000  2.5526554800834367 16.2763277400417152   F   F   F
  3.6099999999999999  2.5526554800834367 16.2763277400417152   F   F   F
  7.2199999999999998  2.5526554800834367 16.2763277400417152   F   F   F
  1.8022597323913461  1.2831228267341859 17.5937646131193759   T   T   T
  5.4156631156871917  1.2837704908743224 17.5943511530201171   T   T   T
  9.0278889204351049  1.2721640874941134 17.6088904225819185   T   T   T
  1.8002373180473588  3.8206822076014677 17.5977151493508472   T   T   T
  5.4169468901840592  3.8212753918616129 17.6024626367330406   T   T   T
  9.0257171814783117  3.8327361727130222 17.6103760606937669   T   T   T
  0.0078206378869217  0.0002261298698304 18.7758853613792134   T   T   T
  3.6054483369473838  5.1000872737019360 18.7222440347113910   T   T   T
  7.2129465864731523  0.0022254904731742 18.7865070674470758   T   T   T
 10.8273494185500425  2.5525430979793353 18.7744633507402021   T   T   T
  3.5782862202890025  2.5591794027590473 18.8464633598530504   T   T   T
  7.2328147776292209  2.5501511841265505 18.7772430789171842   T   T   T
  3.9785100315311714  2.4006418319825293 21.1848041186113676   T   T   T
  5.2838968487605067  2.1996995760831299 20.8460585044958329   T   T   T
  3.7953099545510205  1.0696341318812217 21.3791205134048603   T   T   T
