NH3_Rh100
 1.0000000000000000
     8.0673812665573212    0.0000000000000000    0.0000000000000000
     0.0000000000000000    8.0673812665573212    0.0000000000000000
     0.0000000000000000    0.0000000000000000   35.7044999999999959
 Rh  N   H  
  36   1   3
Selective dynamics
Cartesian
  1.3445635444262201  1.3445635444262201 14.9999999999999964   F   F   F
  4.0336906332786597  1.3445635444262201 14.9999999999999964   F   F   F
  6.7228177221311043  1.3445635444262201 14.9999999999999964   F   F   F
  1.3445635444262201  4.0336906332786597 14.9999999999999964   F   F   F
  4.0336906332786597  4.0336906332786597 14.9999999999999964   F   F   F
  6.7228177221311043  4.0336906332786597 14.9999999999999964   F   F   F
  1.3445635444262201  6.7228177221311043 14.9999999999999964   F   F   F
  4.0336906332786597  6.7228177221311043 14.9999999999999964   F   F   F
  6.7228177221311043  6.7228177221311043 14.9999999999999964   F   F   F
  0.0000000000000000  0.0000000000000000 16.9014999999999986   F   F   F
  2.6891270888524401  0.0000000000000000 16.9014999999999986   F   F   F
  5.3782541777048802  0.0000000000000000 16.9014999999999986   F   F   F
  0.0000000000000000  2.6891270888524401 16.9014999999999986   F   F   F
  2.6891270888524401  2.6891270888524401 16.9014999999999986   F   F   F
  5.3782541777048802  2.6891270888524401 16.9014999999999986   F   F   F
  0.0000000000000000  5.3782541777048802 16.9014999999999986   F   F   F
  2.6891270888524401  5.3782541777048802 16.9014999999999986   F   F   F
  5.3782541777048802  5.3782541777048802 16.9014999999999986   F   F   F
  1.3524635924378965  1.3489394499702230 18.8487560428994350   T   T   T
  4.0275177973175005  1.3499069463276741 18.8511684400715360   T   T   T
  6.7245520073929308  1.3430292710006133 18.8384508005205618   T   T   T
  1.3519650665258029  4.0261257757716908 18.8497457869606961   T   T   T
  4.0281476227204704  4.0244766771377600 18.8526341771225461   T   T   T
  6.7243667866538885  4.0375272768100183 18.8371738512003049   T   T   T
  1.3432997355177851  6.7221695069499274 18.8393214527172042   T   T   T
  4.0377684516083310  6.7220520619018966 18.8371676438562616   T   T   T
  6.7242992126279590  6.7251016062561622 18.8465554275987621   T   T   T
  0.0074668673769067  0.0066510535313290 20.6992747029608388   T   T   T
  2.6916434081664526  8.0468901347837001 20.6866738691185574   T   T   T
  5.3747773329921058  0.0061872340572261 20.6985809193926436   T   T   T
  8.0515718062687078  2.6904861068839638 20.6819206942020735   T   T   T
  2.6890458900076823  2.6816159740456400 20.7629413322296053   T   T   T
  5.3962549194645950  2.6892033713228769 20.6839612451574517   T   T   T
  0.0070735140233699  5.3746227635629342 20.6979281307640335   T   T   T
  2.6914472906909173  5.3917252753962464 20.6798587173011121   T   T   T
  5.3753587391004212  5.3738483471388987 20.6973854772332224   T   T   T
  2.6186633062484819  2.7019366582193092 22.8636347899778585   T   T   T
  3.5325981818897030  2.4098411479085882 23.2247295978517023   T   T   T
  2.4054373791372661  3.6595132399158778 23.1648427868530291   T   T   T
  1.8862309852322448  2.0598564541026461 23.1847538790067205   T   T   T
