CH3CHO_Pd110
 1.0000000000000000
    11.6699999999999999    0.0000000000000000    0.0000000000000000
     0.0000000000000000    5.5012907576313399    0.0000000000000000
     0.0000000000000000    0.0000000000000000   34.1259680682235071
 Pd  C   O   H  
  24   2   1   4
Selective dynamics
Cartesian
  1.9449999999999998  1.3753226894078348 14.9999999999999929   F   F   F
  5.8349999999999991  1.3753226894078348 14.9999999999999929   F   F   F
  9.7249999999999996  1.3753226894078348 14.9999999999999929   F   F   F
  1.9449999999999998  4.1259680682235054 14.9999999999999929   F   F   F
  5.8349999999999991  4.1259680682235054 14.9999999999999929   F   F   F
  9.7249999999999996  4.1259680682235054 14.9999999999999929   F   F   F
  0.0000000000000000  0.0000000000000000 16.3753226894078345   F   F   F
  3.8899999999999997  0.0000000000000000 16.3753226894078345   F   F   F
  7.7799999999999994  0.0000000000000000 16.3753226894078345   F   F   F
  0.0000000000000000  2.7506453788156695 16.3753226894078345   F   F   F
  3.8899999999999997  2.7506453788156695 16.3753226894078345   F   F   F
  7.7799999999999994  2.7506453788156695 16.3753226894078345   F   F   F
  1.9390765329401418  1.3765888166502074 17.8054132458668910   T   T   T
  5.8382561674844720  1.3798035876099595 17.8145629924713838   T   T   T
  9.7269327083166353  1.3736133807765980 17.8192182049338648   T   T   T
  1.9356173551695159  4.1271281844069687 17.8028395697236697   T   T   T
  5.8411765505218574  4.1261103077010937 17.8147360332827098   T   T   T
  9.7293831645240889  4.1273760755751621 17.8160950195268661   T   T   T
  0.0036594631184420  0.0009857489301087 19.1745107277422058   T   T   T
  3.8911454635755400  0.0042710609516959 19.1264960314033665   T   T   T
  7.7795541381666098  5.4983475764998744 19.1670247373484237   T   T   T
 11.6697222994586021  2.7504493299239332 19.1658364859416999   T   T   T
  3.8777934255815589  2.7561790197406464 19.1842337224914345   T   T   T
  7.7904023952226824  2.7529725461383068 19.1545147044426365   T   T   T
  5.8231293893594307  2.1502041611486065 21.9113242801271646   T   T   T
  4.4406714406472263  2.6250905199217001 22.1610366358687862   T   T   T
  3.5990994492522894  2.8964094693541842 21.2927328811286039   T   T   T
  6.0337226688086893  2.1410580064829436 20.8304272812376858   T   T   T
  6.5656974724018893  2.7757950902394950 22.4293332119201558   T   T   T
  5.9582753040944336  1.1320380685577776 22.3121680965918401   T   T   T
  4.1441338104711649  2.7360719425474560 23.2195482675602562   T   T   T
