CH3_Ir110
 1.0000000000000000
    11.5199999999999996    0.0000000000000000    0.0000000000000000
     0.0000000000000000    5.4305800795126853    0.0000000000000000
     0.0000000000000000    0.0000000000000000   34.0729350596345171
 Ir  C   H  
  24   1   3
Selective dynamics
Cartesian
  1.9199999999999999  1.3576450198781711 15.0000000000000018   F   F   F
  5.7599999999999989  1.3576450198781711 15.0000000000000018   F   F   F
  9.5999999999999996  1.3576450198781711 15.0000000000000018   F   F   F
  1.9199999999999999  4.0729350596345135 15.0000000000000018   F   F   F
  5.7599999999999989  4.0729350596345135 15.0000000000000018   F   F   F
  9.5999999999999996  4.0729350596345135 15.0000000000000018   F   F   F
  0.0000000000000000  0.0000000000000000 16.3576450198781735   F   F   F
  3.8399999999999999  0.0000000000000000 16.3576450198781735   F   F   F
  7.6799999999999997  0.0000000000000000 16.3576450198781735   F   F   F
  0.0000000000000000  2.7152900397563422 16.3576450198781735   F   F   F
  3.8399999999999999  2.7152900397563422 16.3576450198781735   F   F   F
  7.6799999999999997  2.7152900397563422 16.3576450198781735   F   F   F
  1.9317036560875764  1.3677746858155868 17.7818857398854178   T   T   T
  5.7475358787029114  1.3668363783180690 17.7842342272363929   T   T   T
  9.6004911552651659  1.3557550065610473 17.7785239680431744   T   T   T
  1.9315680628737688  4.0647215512391792 17.7873474125631077   T   T   T
  5.7475805375180515  4.0650921658119001 17.7881842282383218   T   T   T
  9.6002595725899162  4.0771107808413767 17.7819537443754747   T   T   T
  0.0038616487616817  0.0013003354593850 19.0102040253178508   T   T   T
  3.8378650915481316  5.4276689773737461 18.9767114753205455   T   T   T
  7.6768645498324055  0.0010463901142645 19.0091527079424978   T   T   T
  0.0049592728746957  2.7148712629186211 19.0004948289999120   T   T   T
  3.8409609142412142  2.7157731566555134 19.0755240382116362   T   T   T
  7.6758821112085300  2.7146523748588409 18.9993864415696692   T   T   T
  3.9134618944987536  2.7006079430931029 21.1512770730643815   T   T   T
  4.0136296983454809  1.6716628475894422 21.5211384177637726   T   T   T
  4.7799383102228807  3.2999712452053425 21.4641346446555943   T   T   T
  2.9763349775500902  3.1492377583550204 21.5111372772291176   T   T   T
