H2O_Ir100
 1.0000000000000000
     8.1458701192690270    0.0000000000000000    0.0000000000000000
     0.0000000000000000    8.1458701192690270    0.0000000000000000
     0.0000000000000000    0.0000000000000000   35.7599999999999980
 Ir  O   H  
  36   1   2
Selective dynamics
Cartesian
  1.3576450198781711  1.3576450198781711 15.0000000000000018   F   F   F
  4.0729350596345135  1.3576450198781711 15.0000000000000018   F   F   F
  6.7882250993908553  1.3576450198781711 15.0000000000000018   F   F   F
  1.3576450198781711  4.0729350596345135 15.0000000000000018   F   F   F
  4.0729350596345135  4.0729350596345135 15.0000000000000018   F   F   F
  6.7882250993908553  4.0729350596345135 15.0000000000000018   F   F   F
  1.3576450198781711  6.7882250993908553 15.0000000000000018   F   F   F
  4.0729350596345135  6.7882250993908553 15.0000000000000018   F   F   F
  6.7882250993908553  6.7882250993908553 15.0000000000000018   F   F   F
  0.0000000000000000  0.0000000000000000 16.9200000000000017   F   F   F
  2.7152900397563422  0.0000000000000000 16.9200000000000017   F   F   F
  5.4305800795126844  0.0000000000000000 16.9200000000000017   F   F   F
  0.0000000000000000  2.7152900397563422 16.9200000000000017   F   F   F
  2.7152900397563422  2.7152900397563422 16.9200000000000017   F   F   F
  5.4305800795126844  2.7152900397563422 16.9200000000000017   F   F   F
  0.0000000000000000  5.4305800795126844 16.9200000000000017   F   F   F
  2.7152900397563422  5.4305800795126844 16.9200000000000017   F   F   F
  5.4305800795126844  5.4305800795126844 16.9200000000000017   F   F   F
  1.3528506477596729  1.3619227552247950 18.8776188199639954   T   T   T
  4.0804034986331565  1.3575208814633162 18.8755200296978636   T   T   T
  6.7879954514592873  1.3557268371991997 18.8850868389525814   T   T   T
  1.3715676803596202  4.0860077966204598 18.9019102617237600   T   T   T
  4.0688562326150617  4.0817428043864323 18.8946003226032637   T   T   T
  6.7941006005339224  4.0680080103927150 18.8791613326203169   T   T   T
  1.3684072811735357  6.7817162471832733 18.8957053626149865   T   T   T
  4.0609463637786192  6.7746702191398471 18.9002809759880890   T   T   T
  6.7898609752206811  6.7940398356789826 18.8761528736018249   T   T   T
  0.0074899114290041  0.0018492481049664 20.7479580740401595   T   T   T
  2.7169773426688266  0.0250182335455889 20.7412282028271875   T   T   T
  5.4293021340822607  8.1435007630018728 20.7461572837904917   T   T   T
  0.0078646557934886  2.7213278012373845 20.7503417464747812   T   T   T
  2.7219290198504127  2.6975371659260583 20.7292459017567978   T   T   T
  5.4334262029342586  2.7209466072599300 20.7476776977443933   T   T   T
  8.1323802028782293  5.4357782357055084 20.7343611002075114   T   T   T
  2.7420609459087482  5.4600349382476638 20.8008170502931655   T   T   T
  5.4569761826456862  5.4307534747789585 20.7405045567134927   T   T   T
  2.5057960390522607  5.1347909014985849 22.9612258022846625   T   T   T
  2.6318672299252683  4.1492429783980258 22.9589207948062537   T   T   T
  1.5294708246212088  5.2810085001700111 23.0303526042577005   T   T   T
