CO2_Au110
 1.0000000000000000
    16.3200000000000003    0.0000000000000000    0.0000000000000000
     0.0000000000000000   11.5399826689644573    0.0000000000000000
     0.0000000000000000    0.0000000000000000   34.3274935008616708
 Au  C   O  
  64   1   2
Selective dynamics
Cartesian
  2.0400000000000000  1.4424978336205572 14.9999999999999964   F   F   F
  6.1200000000000001  1.4424978336205572 14.9999999999999964   F   F   F
 10.1999999999999922  1.4424978336205572 14.9999999999999964   F   F   F
 14.2800000000000011  1.4424978336205572 14.9999999999999964   F   F   F
  2.0400000000000000  4.3274935008616717 14.9999999999999964   F   F   F
  6.1200000000000001  4.3274935008616717 14.9999999999999964   F   F   F
 10.1999999999999922  4.3274935008616717 14.9999999999999964   F   F   F
 14.2800000000000011  4.3274935008616717 14.9999999999999964   F   F   F
  2.0400000000000000  7.2124891681027856 14.9999999999999964   F   F   F
  6.1200000000000001  7.2124891681027856 14.9999999999999964   F   F   F
 10.1999999999999922  7.2124891681027856 14.9999999999999964   F   F   F
 14.2800000000000011  7.2124891681027856 14.9999999999999964   F   F   F
  2.0400000000000000 10.0974848353439004 14.9999999999999964   F   F   F
  6.1200000000000001 10.0974848353439004 14.9999999999999964   F   F   F
 10.1999999999999922 10.0974848353439004 14.9999999999999964   F   F   F
 14.2800000000000011 10.0974848353439004 14.9999999999999964   F   F   F
  0.0000000000000000  0.0000000000000000 16.4424978336205569   F   F   F
  4.0800000000000001  0.0000000000000000 16.4424978336205569   F   F   F
  8.1600000000000001  0.0000000000000000 16.4424978336205569   F   F   F
 12.2400000000000002  0.0000000000000000 16.4424978336205569   F   F   F
  0.0000000000000000  2.8849956672411143 16.4424978336205569   F   F   F
  4.0800000000000001  2.8849956672411143 16.4424978336205569   F   F   F
  8.1600000000000001  2.8849956672411143 16.4424978336205569   F   F   F
 12.2400000000000002  2.8849956672411143 16.4424978336205569   F   F   F
  0.0000000000000000  5.7699913344822287 16.4424978336205569   F   F   F
  4.0800000000000001  5.7699913344822287 16.4424978336205569   F   F   F
  8.1600000000000001  5.7699913344822287 16.4424978336205569   F   F   F
 12.2400000000000002  5.7699913344822287 16.4424978336205569   F   F   F
  0.0000000000000000  8.6549870017233435 16.4424978336205569   F   F   F
  4.0800000000000001  8.6549870017233435 16.4424978336205569   F   F   F
  8.1600000000000001  8.6549870017233435 16.4424978336205569   F   F   F
 12.2400000000000002  8.6549870017233435 16.4424978336205569   F   F   F
  2.0400474338827546  1.4427701100203700 18.0676846971845109   T   T   T
  6.1199977494858819  1.4416904349375883 18.0681052088770606   T   T   T
 10.2002707664035928  1.4423723015496981 18.0672823555222131   T   T   T
 14.2800006185291828  1.4424712828587638 18.0675939113200599   T   T   T
  2.0398294525682990  4.3273314455197847 18.0674238982366298   T   T   T
  6.1203996574076829  4.3285379861777447 18.0689439655453796   T   T   T
 10.1998802247866767  4.3269629407798629 18.0690310765206164   T   T   T
 14.2799968028816977  4.3275513798082867 18.0677638098737177   T   T   T
  2.0394800680361360  7.2122564448820530 18.0678237227416503   T   T   T
  6.1200673513455150  7.2127325216299791 18.0713995626137915   T   T   T
 10.1991357601141921  7.2125385720929653 18.0709336041583946   T   T   T
 14.2800303545356009  7.2124970600240301 18.0680444083949858   T   T   T
  2.0405477956779228 10.0977216889809256 18.0689510028623381   T   T   T
  6.1194092643042310 10.0950687172588687 18.0738141230179110   T   T   T
 10.2012498301834693 10.0983716343486911 18.0670319486947974   T   T   T
 14.2799533121138449 10.0974548670751236 18.0678633290976016   T   T   T
  0.0000481193164193 11.5398323955171698 19.4114400827287987   T   T   T
  4.0792036863053083  0.0007065381751636 19.4093817545491447   T   T   T
  8.1593940355840910 11.5385558239043284 19.4116176366814699   T   T   T
 12.2401751251975615 11.5399462786020894 19.4116069650942897   T   T   T
 16.3199969855286042  2.8849922792921396 19.4114641750058148   T   T   T
  4.0814426975530385  2.8871886135804861 19.4119547685593368   T   T   T
  8.1599614172971435  2.8832745876762336 19.4104925190512319   T   T   T
 12.2398884267067167  2.8851459954109444 19.4113264895195279   T   T   T
  0.0001231188375217  5.7701624359930053 19.4112728751868033   T   T   T
  4.0770173007366965  5.7702344667133962 19.4084367944891056   T   T   T
  8.1633374162918191  5.7682137719959847 19.4034056591758102   T   T   T
 12.2401979189829149  5.7700798171024505 19.4114302798390419   T   T   T
 16.3197781302468670  8.6550452676996592 19.4113436466133820   T   T   T
  4.0759713768082850  8.6542033932506168 19.4048571628268895   T   T   T
  8.1648188473397418  8.6587341264711100 19.4035383792060614   T   T   T
 12.2397709910431800  8.6546746418498959 19.4110221857692373   T   T   T
  6.3325059126877061  7.5922460249177828 22.6144359938732471   T   T   T
  5.8634220236840706  8.6676450938789671 22.6852086858797506   T   T   T
  6.8019268267223270  6.5150748407754833 22.5599785660039416   T   T   T
