H2S_Ir111
 1.0000000000000000
    10.8611601590253706    0.0000000000000000    0.0000000000000000
     0.0000000000000000    9.4060406122874021    0.0000000000000000
     0.0000000000000000    0.0000000000000000   36.6510751010644924
 Ir  S   H  
  64   1   2
Selective dynamics
Cartesian
  0.0000000000000000  0.0000000000000000 15.0000000000000018   F   F   F
  2.7152900397563422  0.0000000000000000 15.0000000000000018   F   F   F
  5.4305800795126844  0.0000000000000000 15.0000000000000018   F   F   F
  8.1458701192690270  0.0000000000000000 15.0000000000000018   F   F   F
  1.3576450198781711  2.3515101530718505 15.0000000000000018   F   F   F
  4.0729350596345135  2.3515101530718505 15.0000000000000018   F   F   F
  6.7882250993908571  2.3515101530718505 15.0000000000000018   F   F   F
  9.5035151391471988  2.3515101530718505 15.0000000000000018   F   F   F
  0.0000000000000000  4.7030203061437010 15.0000000000000018   F   F   F
  2.7152900397563422  4.7030203061437010 15.0000000000000018   F   F   F
  5.4305800795126844  4.7030203061437010 15.0000000000000018   F   F   F
  8.1458701192690270  4.7030203061437010 15.0000000000000018   F   F   F
  1.3576450198781711  7.0545304592155516 15.0000000000000018   F   F   F
  4.0729350596345135  7.0545304592155516 15.0000000000000018   F   F   F
  6.7882250993908571  7.0545304592155516 15.0000000000000018   F   F   F
  9.5035151391471988  7.0545304592155516 15.0000000000000018   F   F   F
  1.3576450198781711  0.7838367176906168 17.2170250336881665   F   F   F
  4.0729350596345135  0.7838367176906168 17.2170250336881665   F   F   F
  6.7882250993908571  0.7838367176906168 17.2170250336881665   F   F   F
  9.5035151391471988  0.7838367176906168 17.2170250336881665   F   F   F
  0.0000000000000000  3.1353468707624672 17.2170250336881665   F   F   F
  2.7152900397563422  3.1353468707624672 17.2170250336881665   F   F   F
  5.4305800795126844  3.1353468707624672 17.2170250336881665   F   F   F
  8.1458701192690270  3.1353468707624672 17.2170250336881665   F   F   F
  1.3576450198781711  5.4868570238343182 17.2170250336881665   F   F   F
  4.0729350596345135  5.4868570238343182 17.2170250336881665   F   F   F
  6.7882250993908571  5.4868570238343182 17.2170250336881665   F   F   F
  9.5035151391471988  5.4868570238343182 17.2170250336881665   F   F   F
  0.0000000000000000  7.8383671769061687 17.2170250336881665   F   F   F
  2.7152900397563422  7.8383671769061687 17.2170250336881665   F   F   F
  5.4305800795126844  7.8383671769061687 17.2170250336881665   F   F   F
  8.1458701192690270  7.8383671769061687 17.2170250336881665   F   F   F
 10.8607966310113362  1.5661156294149616 19.4438235152949375   T   T   T
  2.7191135326464169  1.5662912367875936 19.4447377507121999   T   T   T
  5.4430774248189495  1.5750699137296149 19.4679427384760189   T   T   T
  8.1396889784054984  1.5735601320807098 19.4629532759349608   T   T   T
  1.3593007788704501  3.9183708024941697 19.4447020019127947   T   T   T
  4.0722300741866659  3.9172047256060218 19.4487379731867556   T   T   T
  6.7890994645106693  3.9091589435407896 19.4663389948326859   T   T   T
  9.5046590389691925  3.9175052692445722 19.4475963202900886   T   T   T
  0.0003960069408399  6.2707628530341344 19.4421076860495283   T   T   T
  2.7162925026208318  6.2713869577014592 19.4423492549720578   T   T   T
  5.4318710080322061  6.2694339932837666 19.4466264029541094   T   T   T
  8.1445094132929832  6.2698193386048491 19.4456629680107689   T   T   T
  1.3581386048150781  8.6228675811030602 19.4445978630079566   T   T   T
  4.0732917241214546  8.6242036169124194 19.4432519666417960   T   T   T
  6.7878640012424487  8.6205136500588058 19.4453453208314464   T   T   T
  9.5042047845152844  8.6244091304815758 19.4454231260875474   T   T   T
  0.0022860654397231  9.4034447693214940 21.6565705737157117   T   T   T
  2.7149850763006045  9.4030233027493200 21.6552179864683332   T   T   T
  5.4183941532032529  9.3843579847824614 21.6511313948341666   T   T   T
  8.1534498139938201  9.3904380406870622 21.6569700922382147   T   T   T
  1.3562160397316243  2.3508361430770655 21.6575288255317204   T   T   T
  4.0558095853797598  2.3503132084613116 21.6635451481689714   T   T   T
  6.7940736145206522  2.3532159984676571 21.7364800179905124   T   T   T
  9.5243922609392673  2.3494342761655367 21.6527348726497451   T   T   T
 10.8604526893200450  4.7026683324380194 21.6578893594355790   T   T   T
  2.7171398494985284  4.7021596638006038 21.6591878746941333   T   T   T
  5.4235808529774223  4.7132762219589095 21.6580353508556236   T   T   T
  8.1531454103316783  4.7100261945422792 21.6519466230513835   T   T   T
  1.3580650955904334  7.0519303361690193 21.6571308727593816   T   T   T
  4.0676990550568206  7.0517957667191533 21.6559829641722388   T   T   T
  6.7895454549480876  7.0544056136246533 21.6547254174756958   T   T   T
  9.5095710847283783  7.0510848765822240 21.6560877297306256   T   T   T
  6.8645094202070860  2.2276656513280333 24.0523202820419577   T   T   T
  8.1978579258099309  2.4507212620616921 24.2889842739690316   T   T   T
  6.4911756951936912  3.4828610770801673 24.4509537973474629   T   T   T
