CH3OCH3_Rh100
 1.0000000000000000
     8.0673812665573212    0.0000000000000000    0.0000000000000000
     0.0000000000000000    8.0673812665573212    0.0000000000000000
     0.0000000000000000    0.0000000000000000   35.7044999999999959
 Rh  C   O   H  
  36   2   1   6
Selective dynamics
Cartesian
  1.3445635444262201  1.3445635444262201 14.9999999999999964   F   F   F
  4.0336906332786597  1.3445635444262201 14.9999999999999964   F   F   F
  6.7228177221311043  1.3445635444262201 14.9999999999999964   F   F   F
  1.3445635444262201  4.0336906332786597 14.9999999999999964   F   F   F
  4.0336906332786597  4.0336906332786597 14.9999999999999964   F   F   F
  6.7228177221311043  4.0336906332786597 14.9999999999999964   F   F   F
  1.3445635444262201  6.7228177221311043 14.9999999999999964   F   F   F
  4.0336906332786597  6.7228177221311043 14.9999999999999964   F   F   F
  6.7228177221311043  6.7228177221311043 14.9999999999999964   F   F   F
  0.0000000000000000  0.0000000000000000 16.9014999999999986   F   F   F
  2.6891270888524401  0.0000000000000000 16.9014999999999986   F   F   F
  5.3782541777048802  0.0000000000000000 16.9014999999999986   F   F   F
  0.0000000000000000  2.6891270888524401 16.9014999999999986   F   F   F
  2.6891270888524401  2.6891270888524401 16.9014999999999986   F   F   F
  5.3782541777048802  2.6891270888524401 16.9014999999999986   F   F   F
  0.0000000000000000  5.3782541777048802 16.9014999999999986   F   F   F
  2.6891270888524401  5.3782541777048802 16.9014999999999986   F   F   F
  5.3782541777048802  5.3782541777048802 16.9014999999999986   F   F   F
  1.3617626351940915  1.3587851885067574 18.8607987357599463   T   T   T
  4.0269980466672655  1.3549106257099772 18.8555078329653902   T   T   T
  6.7288522454519244  1.3429519121420654 18.8355000927384708   T   T   T
  1.3591216067318279  4.0225115496311519 18.8605961821757546   T   T   T
  4.0185874945250593  4.0189063141321890 18.8679315899027280   T   T   T
  6.7266983332995638  4.0388645781422188 18.8348223046104692   T   T   T
  1.3429817934886694  6.7245366655514411 18.8370389837251260   T   T   T
  4.0369016567219820  6.7232436075912734 18.8369248713839852   T   T   T
  6.7264473932262057  6.7264501822322513 18.8363458886335522   T   T   T
  0.0074092359562214  0.0068468859567431 20.6997985399104287   T   T   T
  2.6926918659972885  8.0490030837352382 20.6847678562056423   T   T   T
  5.3766944790550673  0.0011042908291788 20.6871546888800388   T   T   T
  8.0531902520914347  2.6895641016631542 20.6873872376866075   T   T   T
  2.6921407333029541  2.6899058065515917 20.8053903790049652   T   T   T
  5.4107080216533348  2.6928606372782609 20.6763143665095370   T   T   T
  0.0003196063721492  5.3739883194700981 20.6896184654153004   T   T   T
  2.6889679850368498  5.3998667957797171 20.6861364737879505   T   T   T
  5.3793687821851881  5.3804424070101300 20.6886255394252885   T   T   T
  2.1420556005852163  3.6843631742854672 23.6957884194708868   T   T   T
  3.9920536450516426  2.1717740129391112 23.6087623831155611   T   T   T
  2.7307108491061829  2.5524296417814289 23.0322246278550367   T   T   T
  2.0308073430547822  3.4553393272540336 24.7642870304940104   T   T   T
  2.7708137336113228  4.5816184774417108 23.5724018054321149   T   T   T
  1.1547254015580695  3.8520555259385825 23.2524700454397220   T   T   T
  3.8354814224697682  1.8583151715598365 24.6497379892877788   T   T   T
  4.7043791432178406  3.0118223790717868 23.5764543701020557   T   T   T
  4.3820645388877324  1.3233125895300142 23.0288191680591119   T   T   T
