SO2_Au110
 1.0000000000000000
    16.3200000000000003    0.0000000000000000    0.0000000000000000
     0.0000000000000000   11.5399826689644573    0.0000000000000000
     0.0000000000000000    0.0000000000000000   34.3274935008616708
 Au  S   O  
  64   1   2
Selective dynamics
Cartesian
  2.0400000000000000  1.4424978336205572 14.9999999999999964   F   F   F
  6.1200000000000001  1.4424978336205572 14.9999999999999964   F   F   F
 10.1999999999999922  1.4424978336205572 14.9999999999999964   F   F   F
 14.2800000000000011  1.4424978336205572 14.9999999999999964   F   F   F
  2.0400000000000000  4.3274935008616717 14.9999999999999964   F   F   F
  6.1200000000000001  4.3274935008616717 14.9999999999999964   F   F   F
 10.1999999999999922  4.3274935008616717 14.9999999999999964   F   F   F
 14.2800000000000011  4.3274935008616717 14.9999999999999964   F   F   F
  2.0400000000000000  7.2124891681027856 14.9999999999999964   F   F   F
  6.1200000000000001  7.2124891681027856 14.9999999999999964   F   F   F
 10.1999999999999922  7.2124891681027856 14.9999999999999964   F   F   F
 14.2800000000000011  7.2124891681027856 14.9999999999999964   F   F   F
  2.0400000000000000 10.0974848353439004 14.9999999999999964   F   F   F
  6.1200000000000001 10.0974848353439004 14.9999999999999964   F   F   F
 10.1999999999999922 10.0974848353439004 14.9999999999999964   F   F   F
 14.2800000000000011 10.0974848353439004 14.9999999999999964   F   F   F
  0.0000000000000000  0.0000000000000000 16.4424978336205569   F   F   F
  4.0800000000000001  0.0000000000000000 16.4424978336205569   F   F   F
  8.1600000000000001  0.0000000000000000 16.4424978336205569   F   F   F
 12.2400000000000002  0.0000000000000000 16.4424978336205569   F   F   F
  0.0000000000000000  2.8849956672411143 16.4424978336205569   F   F   F
  4.0800000000000001  2.8849956672411143 16.4424978336205569   F   F   F
  8.1600000000000001  2.8849956672411143 16.4424978336205569   F   F   F
 12.2400000000000002  2.8849956672411143 16.4424978336205569   F   F   F
  0.0000000000000000  5.7699913344822287 16.4424978336205569   F   F   F
  4.0800000000000001  5.7699913344822287 16.4424978336205569   F   F   F
  8.1600000000000001  5.7699913344822287 16.4424978336205569   F   F   F
 12.2400000000000002  5.7699913344822287 16.4424978336205569   F   F   F
  0.0000000000000000  8.6549870017233435 16.4424978336205569   F   F   F
  4.0800000000000001  8.6549870017233435 16.4424978336205569   F   F   F
  8.1600000000000001  8.6549870017233435 16.4424978336205569   F   F   F
 12.2400000000000002  8.6549870017233435 16.4424978336205569   F   F   F
  2.0639182325918881  1.4565716183964010 18.0759169681634759   T   T   T
  6.1189909640839861  1.4424908761296167 18.0422581994642215   T   T   T
 10.1932089199258993  1.4441666138763538 18.0764308398410662   T   T   T
 14.2813429897360447  1.4439028411417685 18.0684134207458555   T   T   T
  2.0623704331566572  4.3170733154143957 18.0745885128626007   T   T   T
  6.1077271872418519  4.3230792056908722 18.0425181541159496   T   T   T
 10.1960247391646313  4.3263938940270288 18.0738196897826704   T   T   T
 14.2815200626908503  4.3270172082841523 18.0688575204616448   T   T   T
  2.0305153988044515  7.2172405682041330 18.0607816015611178   T   T   T
  6.1247555139199061  7.2166925601336374 18.0602331272776375   T   T   T
 10.2034540440996242  7.2120718390265361 18.0632750654631700   T   T   T
 14.2813004332182736  7.2109712353297244 18.0674771041497593   T   T   T
  2.0277966117962043 10.1030567438893470 18.0555604414713855   T   T   T
  6.1284548936358689 10.0974557825719522 18.0607467958341381   T   T   T
 10.2039394508907240 10.0946744130586232 18.0626733102838770   T   T   T
 14.2805632757788743 10.0986365866609464 18.0680212089182604   T   T   T
  0.0059945329117209  0.0080243322415702 19.4045207331472831   T   T   T
  4.0838326296754834 11.5145737110075306 19.3961578291035401   T   T   T
  8.1581897480718730 11.5294036892967000 19.4017351581117623   T   T   T
 12.2391132869239048  0.0010313845805401 19.4070907183188801   T   T   T
  0.0080736313735219  2.8868424891125595 19.4065460038740341   T   T   T
  4.0830985301004992  2.8591751147364994 19.4958287883019814   T   T   T
  8.1579791562831634  2.8931914018832998 19.4103704495482141   T   T   T
 12.2410687366560893  2.8847633902164671 19.4087143886746425   T   T   T
  0.0081217130645054  5.7633734302811508 19.4064516814579662   T   T   T
  4.0744942190140820  5.8117993209034120 19.3825154807510138   T   T   T
  8.1527854424992885  5.7782652711654396 19.3990290536634795   T   T   T
 12.2401541196693842  5.7691692291850858 19.4079768001944295   T   T   T
 16.3167685683919785  8.6552850976811353 19.4105952101834873   T   T   T
  4.0780264346781188  8.6723138070160513 19.4024142581871892   T   T   T
  8.1627357418708009  8.6506973225277051 19.4116579977809600   T   T   T
 12.2422036476789593  8.6543771355360093 19.4095562136859421   T   T   T
  5.0714516620040104  3.2498254555161776 21.7309366644427868   T   T   T
  6.4489806635192970  2.7403147101744403 21.6792439510426114   T   T   T
  4.9031045102426107  4.6976435152461500 21.9325296005160126   T   T   T
