CH3OCH3_Pt100
 1.0000000000000000
     8.3155757467537992    0.0000000000000000    0.0000000000000000
     0.0000000000000000    8.3155757467537992    0.0000000000000000
     0.0000000000000000    0.0000000000000000   35.8800000000000026
 Pt  C   O   H  
  36   2   1   6
Selective dynamics
Cartesian
  1.3859292911256331  1.3859292911256331 15.0000000000000018   F   F   F
  4.1577878733768996  1.3859292911256331 15.0000000000000018   F   F   F
  6.9296464556281654  1.3859292911256331 15.0000000000000018   F   F   F
  1.3859292911256331  4.1577878733768996 15.0000000000000018   F   F   F
  4.1577878733768996  4.1577878733768996 15.0000000000000018   F   F   F
  6.9296464556281654  4.1577878733768996 15.0000000000000018   F   F   F
  1.3859292911256331  6.9296464556281654 15.0000000000000018   F   F   F
  4.1577878733768996  6.9296464556281654 15.0000000000000018   F   F   F
  6.9296464556281654  6.9296464556281654 15.0000000000000018   F   F   F
  0.0000000000000000  0.0000000000000000 16.9600000000000009   F   F   F
  2.7718585822512662  0.0000000000000000 16.9600000000000009   F   F   F
  5.5437171645025325  0.0000000000000000 16.9600000000000009   F   F   F
  0.0000000000000000  2.7718585822512662 16.9600000000000009   F   F   F
  2.7718585822512662  2.7718585822512662 16.9600000000000009   F   F   F
  5.5437171645025325  2.7718585822512662 16.9600000000000009   F   F   F
  0.0000000000000000  5.5437171645025325 16.9600000000000009   F   F   F
  2.7718585822512662  5.5437171645025325 16.9600000000000009   F   F   F
  5.5437171645025325  5.5437171645025325 16.9600000000000009   F   F   F
  1.3998868467221963  1.4061795916921804 18.9756496647241057   T   T   T
  4.1461806851146923  1.4014473504100811 18.9679243439630234   T   T   T
  6.9293485973372437  1.3829386374078469 18.9450234606625934   T   T   T
  1.3926599861435545  4.1550970448889260 18.9619863585692663   T   T   T
  4.1474396815296926  4.1534539453618189 18.9578394864330910   T   T   T
  6.9284597489288595  4.1606276057779468 18.9458046128544382   T   T   T
  1.3826455119627583  6.9388704085346298 18.9460820146782609   T   T   T
  4.1589433784227987  6.9367898793622782 18.9470083001031142   T   T   T
  6.9278525582201391  6.9301237123340975 18.9458830726512524   T   T   T
  0.0009568748018409  0.0045512899713774 20.9382215642634293   T   T   T
  2.7744703834098812  8.3148785955972020 20.9422525187381758   T   T   T
  5.5441487994238186  0.0045249171786098 20.9334895401757066   T   T   T
  8.2930286309588990  2.7771799500679659 20.9318031478768987   T   T   T
  2.7550245711805426  2.7751700005472557 21.0201877698591275   T   T   T
  5.5544978295570813  2.7736516631592942 20.9276844336037833   T   T   T
  0.0022410346469250  5.5476773383644788 20.9321681493331582   T   T   T
  2.7708645648595671  5.5713375274656176 20.9202179246425715   T   T   T
  5.5378164117376443  5.5390291502977380 20.9368853248470259   T   T   T
  1.6594930894638897  3.4663792051568452 23.9546545596320080   T   T   T
  3.5367503811784538  1.9483555555301271 23.9813286705294537   T   T   T
  2.8899407625916131  3.0567453142274541 23.3206488592294789   T   T   T
  0.9045522130427102  2.6651083272724034 23.8985078102810569   T   T   T
  1.8672432667138610  3.7123599119787500 25.0062819497994617   T   T   T
  1.2984707378669502  4.3587376509127900 23.4323355408279035   T   T   T
  3.7116239536558862  2.2116081491463406 25.0353749874356168   T   T   T
  4.4947526554738593  1.7825062883855558 23.4746566539736641   T   T   T
  2.9145333113545537  1.0408334877895646 23.9164867052692571   T   T   T
