CH3CHO_Rh100
 1.0000000000000000
     8.0673812665573212    0.0000000000000000    0.0000000000000000
     0.0000000000000000    8.0673812665573212    0.0000000000000000
     0.0000000000000000    0.0000000000000000   35.7044999999999959
 Rh  C   O   H  
  36   2   1   4
Selective dynamics
Cartesian
  1.3445635444262201  1.3445635444262201 14.9999999999999964   F   F   F
  4.0336906332786597  1.3445635444262201 14.9999999999999964   F   F   F
  6.7228177221311043  1.3445635444262201 14.9999999999999964   F   F   F
  1.3445635444262201  4.0336906332786597 14.9999999999999964   F   F   F
  4.0336906332786597  4.0336906332786597 14.9999999999999964   F   F   F
  6.7228177221311043  4.0336906332786597 14.9999999999999964   F   F   F
  1.3445635444262201  6.7228177221311043 14.9999999999999964   F   F   F
  4.0336906332786597  6.7228177221311043 14.9999999999999964   F   F   F
  6.7228177221311043  6.7228177221311043 14.9999999999999964   F   F   F
  0.0000000000000000  0.0000000000000000 16.9014999999999986   F   F   F
  2.6891270888524401  0.0000000000000000 16.9014999999999986   F   F   F
  5.3782541777048802  0.0000000000000000 16.9014999999999986   F   F   F
  0.0000000000000000  2.6891270888524401 16.9014999999999986   F   F   F
  2.6891270888524401  2.6891270888524401 16.9014999999999986   F   F   F
  5.3782541777048802  2.6891270888524401 16.9014999999999986   F   F   F
  0.0000000000000000  5.3782541777048802 16.9014999999999986   F   F   F
  2.6891270888524401  5.3782541777048802 16.9014999999999986   F   F   F
  5.3782541777048802  5.3782541777048802 16.9014999999999986   F   F   F
  1.3612100408213688  1.3597955575540825 18.8588106779478117   T   T   T
  4.0230036564323397  1.3561170597950958 18.8545726551752111   T   T   T
  6.7243655555414215  1.3439911346343045 18.8347524335958774   T   T   T
  1.3571140209427577  4.0224462687196123 18.8530992939510718   T   T   T
  4.0277927844138972  4.0272419780370807 18.8487079590264024   T   T   T
  6.7244931459112385  4.0350383417798650 18.8354175030334510   T   T   T
  1.3464746880088680  6.7241657222145763 18.8373323199926084   T   T   T
  4.0356404225585782  6.7231799275681823 18.8388243327650855   T   T   T
  6.7230908515624748  6.7239229610490288 18.8359979601957086   T   T   T
  0.0048704636531617  0.0033355135006620 20.6837326429836637   T   T   T
  2.6909022853433564  8.0618604953769530 20.6855481681886140   T   T   T
  5.3768829627510897  0.0056257718315275 20.6917560204891160   T   T   T
  8.0578127875119101  2.6922377104214830 20.6802300045226914   T   T   T
  2.6812369182623921  2.6891934145400298 20.8172775161178905   T   T   T
  5.3981732254039283  2.6858982684851784 20.6752518410235950   T   T   T
  0.0056062203357951  5.3743615805952230 20.6912382618666157   T   T   T
  2.6872029940118383  5.3971726513974811 20.6810664393097809   T   T   T
  5.3796989139413780  5.3743295585186335 20.6879523444537448   T   T   T
  1.1618978119887273  1.9702803402928759 23.8954039954830364   T   T   T
  2.4380516578172711  2.7075635843975925 23.8576191166056759   T   T   T
  3.0772615186836849  3.0298830346784325 22.8380205328899137   T   T   T
  1.3205505614347317  0.9867273009406359 24.3696724952881212   T   T   T
  0.4169729777723101  2.4864193755591897 24.5198832610003059   T   T   T
  0.7583631118069386  1.8170817413642035 22.8825142613769010   T   T   T
  2.8773838339698790  2.9935581478909676 24.8291878401366617   T   T   T
