CH3_Cu110
 1.0000000000000000
    10.8300000000000001    0.0000000000000000    0.0000000000000000
     0.0000000000000000    5.1053109601668734    0.0000000000000000
     0.0000000000000000    0.0000000000000000   33.8289832201251528
 Cu  C   H  
  24   1   3
Selective dynamics
Cartesian
  1.8049999999999999  1.2763277400417183 14.9999999999999982   F   F   F
  5.4149999999999991  1.2763277400417183 14.9999999999999982   F   F   F
  9.0249999999999986  1.2763277400417183 14.9999999999999982   F   F   F
  1.8049999999999999  3.8289832201251550 14.9999999999999982   F   F   F
  5.4149999999999991  3.8289832201251550 14.9999999999999982   F   F   F
  9.0249999999999986  3.8289832201251550 14.9999999999999982   F   F   F
  0.0000000000000000  0.0000000000000000 16.2763277400417152   F   F   F
  3.6099999999999999  0.0000000000000000 16.2763277400417152   F   F   F
  7.2199999999999998  0.0000000000000000 16.2763277400417152   F   F   F
  0.0000000000000000  2.5526554800834367 16.2763277400417152   F   F   F
  3.6099999999999999  2.5526554800834367 16.2763277400417152   F   F   F
  7.2199999999999998  2.5526554800834367 16.2763277400417152   F   F   F
  1.8499223145003594  1.2709648829539992 17.6070263850016389   T   T   T
  5.3680403552426608  1.2709366651323071 17.6072186182086234   T   T   T
  9.0236083774268039  1.2718705883837451 17.6027257120111607   T   T   T
  1.7939369165642223  3.8268337452839565 17.5687996911959772   T   T   T
  5.4272462044094452  3.8271198074920094 17.5665306420623253   T   T   T
  9.0238147144659990  3.8225573704358893 17.6107511405468067   T   T   T
  0.0038709093962333  5.1051292868689888 18.7513069528223788   T   T   T
  3.6117989116679610  5.0561811976547144 18.8570244177089847   T   T   T
  7.2122577282432667  5.1049106695243012 18.7518279160019823   T   T   T
  0.0063022446516802  2.5386067852582683 18.7538290832053463   T   T   T
  3.6082322737605992  2.6018519393762558 18.8645714985281217   T   T   T
  7.2117641033688233  2.5376522584127632 18.7557764780480376   T   T   T
  3.5506977322874373  3.7632622589965150 20.5674987498144688   T   T   T
  3.7364703995970916  4.8311077523061048 20.8386683972259270   T   T   T
  2.5813984893065220  3.4881685642127342 21.0028486323005659   T   T   T
  4.3722294632229843  3.2043911654664337 21.0425315203023580   T   T   T
