H2O_Pt100
 1.0000000000000000
     8.3155757467537992    0.0000000000000000    0.0000000000000000
     0.0000000000000000    8.3155757467537992    0.0000000000000000
     0.0000000000000000    0.0000000000000000   35.8800000000000026
 Pt  O   H  
  36   1   2
Selective dynamics
Cartesian
  1.3859292911256331  1.3859292911256331 15.0000000000000018   F   F   F
  4.1577878733768996  1.3859292911256331 15.0000000000000018   F   F   F
  6.9296464556281654  1.3859292911256331 15.0000000000000018   F   F   F
  1.3859292911256331  4.1577878733768996 15.0000000000000018   F   F   F
  4.1577878733768996  4.1577878733768996 15.0000000000000018   F   F   F
  6.9296464556281654  4.1577878733768996 15.0000000000000018   F   F   F
  1.3859292911256331  6.9296464556281654 15.0000000000000018   F   F   F
  4.1577878733768996  6.9296464556281654 15.0000000000000018   F   F   F
  6.9296464556281654  6.9296464556281654 15.0000000000000018   F   F   F
  0.0000000000000000  0.0000000000000000 16.9600000000000009   F   F   F
  2.7718585822512662  0.0000000000000000 16.9600000000000009   F   F   F
  5.5437171645025325  0.0000000000000000 16.9600000000000009   F   F   F
  0.0000000000000000  2.7718585822512662 16.9600000000000009   F   F   F
  2.7718585822512662  2.7718585822512662 16.9600000000000009   F   F   F
  5.5437171645025325  2.7718585822512662 16.9600000000000009   F   F   F
  0.0000000000000000  5.5437171645025325 16.9600000000000009   F   F   F
  2.7718585822512662  5.5437171645025325 16.9600000000000009   F   F   F
  5.5437171645025325  5.5437171645025325 16.9600000000000009   F   F   F
  1.3783269657908910  1.3804336359793787 18.9416898748977829   T   T   T
  4.1586059743651216  1.3957870364225913 18.9593327673110323   T   T   T
  6.9115961551191649  1.4035197813311524 18.9659253452891789   T   T   T
  1.3829124855494612  4.1641534718654816 18.9454485912509831   T   T   T
  4.1624459870724326  4.1526746506848200 18.9631103693612886   T   T   T
  6.9194652327588555  4.1564238586637465 18.9587338994462691   T   T   T
  1.3855243822557222  6.9299906818804873 18.9556250560874560   T   T   T
  4.1516966806619164  6.9320321767915303 18.9460109704660375   T   T   T
  6.9350142454244228  6.9364042375809429 18.9421175742892416   T   T   T
  8.3113917437622611  0.0039014450069242 20.9391595752560065   T   T   T
  2.7748495126985175  0.0030903857095246 20.9413649727628552   T   T   T
  5.5421068548523840  8.2912546556654423 20.9414936850398341   T   T   T
  0.0258388510744652  2.7736468379655155 20.9430907784354758   T   T   T
  2.7452602415979737  2.7675985039660431 20.9230587072469056   T   T   T
  5.5884710444937173  2.7353795280832496 20.9919171975486982   T   T   T
  8.3129100220567977  5.5404838634145559 20.9418409374478678   T   T   T
  2.7769965593558261  5.5383147831653581 20.9419295718801521   T   T   T
  5.5480807558495506  5.5689899445321789 20.9246899458939808   T   T   T
  5.1975983048657097  3.0826454251910298 23.2364147065684428   T   T   T
  5.3481176534106769  4.0559194553285840 23.2274360090060412   T   T   T
  4.2187837654198761  2.9814074805932198 23.1658802782184630   T   T   T
