CO_Ir100
 1.0000000000000000
     8.1458701192690270    0.0000000000000000    0.0000000000000000
     0.0000000000000000    8.1458701192690270    0.0000000000000000
     0.0000000000000000    0.0000000000000000   35.7599999999999980
 Ir  O   C  
  36   1   1
Selective dynamics
Cartesian
  1.3576450198781711  1.3576450198781711 15.0000000000000018   F   F   F
  4.0729350596345135  1.3576450198781711 15.0000000000000018   F   F   F
  6.7882250993908553  1.3576450198781711 15.0000000000000018   F   F   F
  1.3576450198781711  4.0729350596345135 15.0000000000000018   F   F   F
  4.0729350596345135  4.0729350596345135 15.0000000000000018   F   F   F
  6.7882250993908553  4.0729350596345135 15.0000000000000018   F   F   F
  1.3576450198781711  6.7882250993908553 15.0000000000000018   F   F   F
  4.0729350596345135  6.7882250993908553 15.0000000000000018   F   F   F
  6.7882250993908553  6.7882250993908553 15.0000000000000018   F   F   F
  0.0000000000000000  0.0000000000000000 16.9200000000000017   F   F   F
  2.7152900397563422  0.0000000000000000 16.9200000000000017   F   F   F
  5.4305800795126844  0.0000000000000000 16.9200000000000017   F   F   F
  0.0000000000000000  2.7152900397563422 16.9200000000000017   F   F   F
  2.7152900397563422  2.7152900397563422 16.9200000000000017   F   F   F
  5.4305800795126844  2.7152900397563422 16.9200000000000017   F   F   F
  0.0000000000000000  5.4305800795126844 16.9200000000000017   F   F   F
  2.7152900397563422  5.4305800795126844 16.9200000000000017   F   F   F
  5.4305800795126844  5.4305800795126844 16.9200000000000017   F   F   F
  1.3567175967607075  1.3622070454575306 18.8895248588388576   T   T   T
  4.0701435204919010  1.3548254060853482 18.8878785804926785   T   T   T
  6.7826986188760943  1.3626678311874154 18.8908301418077933   T   T   T
  1.3564849785549444  4.0663505166351417 18.8890845200177822   T   T   T
  4.0701943904594069  4.0743436135093214 18.8869287332524252   T   T   T
  6.7829187148712782  4.0657790899618886 18.8904505508825515   T   T   T
  1.3537601179041678  6.7875591222977611 18.8758862424087752   T   T   T
  4.0723970264189857  6.7870602390177108 18.8711850985932337   T   T   T
  6.7901176936681047  6.7872742818709035 18.8778184797657005   T   T   T
  8.1443190402817400  0.0081385356253361 20.7469987202980590   T   T   T
  2.7129063654065129  8.1266724858100190 20.7324284842427389   T   T   T
  5.4287198646989108  8.1275104854664892 20.7335393011686868   T   T   T
  8.1399875794332388  2.7136668601377512 20.7513741219654619   T   T   T
  2.7232769501604275  2.7150863627368005 20.8038050852607768   T   T   T
  5.4066361898424464  2.7145106197572884 20.8046324174806223   T   T   T
  8.1446598163435002  5.4199649121009088 20.7464856893061977   T   T   T
  2.7120774119527526  5.4475874929333514 20.7321392804831746   T   T   T
  5.4298906465743553  5.4462788007079785 20.7338935805952254   T   T   T
  4.0633450658092309  2.7437578096227604 23.5206831144549504   T   T   T
  4.0559746893606166  2.7332664573361920 22.3290344771679869   T   T   T
