CH3OH_Ag110
 1.0000000000000000
    12.2699999999999996    0.0000000000000000    0.0000000000000000
     0.0000000000000000    5.7841334701059592    0.0000000000000000
     0.0000000000000000    0.0000000000000000   34.3381001025794674
 Ag  C   O   H  
  24   1   1   4
Selective dynamics
Cartesian
  2.0449999999999999  1.4460333675264898 15.0000000000000053   F   F   F
  6.1349999999999998  1.4460333675264898 15.0000000000000053   F   F   F
 10.2249999999999979  1.4460333675264898 15.0000000000000053   F   F   F
  2.0449999999999999  4.3381001025794692 15.0000000000000053   F   F   F
  6.1349999999999998  4.3381001025794692 15.0000000000000053   F   F   F
 10.2249999999999979  4.3381001025794692 15.0000000000000053   F   F   F
  0.0000000000000000  0.0000000000000000 16.4460333675264891   F   F   F
  4.0899999999999999  0.0000000000000000 16.4460333675264891   F   F   F
  8.1799999999999997  0.0000000000000000 16.4460333675264891   F   F   F
  0.0000000000000000  2.8920667350529796 16.4460333675264891   F   F   F
  4.0899999999999999  2.8920667350529796 16.4460333675264891   F   F   F
  8.1799999999999997  2.8920667350529796 16.4460333675264891   F   F   F
  2.0453452795758720  1.4490148582764069 17.9819231462281302   T   T   T
  6.1365162484037503  1.4463353549376825 17.9785329851122881   T   T   T
 10.2256301091117709  1.4460777184901679 17.9850560827381258   T   T   T
  2.0486898906540301  4.3340344206847847 17.9868214508489217   T   T   T
  6.1349835089511240  4.3378323859181629 17.9821483882013737   T   T   T
 10.2250877429173634  4.3383172130448413 17.9854214749274881   T   T   T
  0.0017900806685061  0.0004365853870563 19.3555314403105676   T   T   T
  4.0870030715071781  5.7824416697340002 19.3325838082749577   T   T   T
  8.1783352379093071  5.7837246936120188 19.3582538322540856   T   T   T
  0.0001787903438205  2.8919755344194642 19.3551755933594087   T   T   T
  4.0854269924948294  2.8963257939053033 19.3857854990646210   T   T   T
  8.1812506022831872  2.8917189034356996 19.3562192071009314   T   T   T
  4.1690340889325830  3.2967578272700124 22.9117703774059507   T   T   T
  4.6416703965447033  2.4806093270826577 21.8096747418002650   T   T   T
  3.0795254071548634  3.3572473787245727 22.8311743055418610   T   T   T
  5.6164298737622813  2.4412271996328734 21.8276366280276690   T   T   T
  4.4085282892565774  2.8269383195338338 23.8749729759098166   T   T   T
  4.5883247855355025  4.3142883414410571 22.8887851193820673   T   T   T
