CH3COOH_Au110
 1.0000000000000000
    16.3200000000000003    0.0000000000000000    0.0000000000000000
     0.0000000000000000   11.5399826689644573    0.0000000000000000
     0.0000000000000000    0.0000000000000000   34.3274935008616708
 Au  C   O   H  
  64   2   2   4
Selective dynamics
Cartesian
  2.0400000000000000  1.4424978336205572 14.9999999999999964   F   F   F
  6.1200000000000001  1.4424978336205572 14.9999999999999964   F   F   F
 10.1999999999999922  1.4424978336205572 14.9999999999999964   F   F   F
 14.2800000000000011  1.4424978336205572 14.9999999999999964   F   F   F
  2.0400000000000000  4.3274935008616717 14.9999999999999964   F   F   F
  6.1200000000000001  4.3274935008616717 14.9999999999999964   F   F   F
 10.1999999999999922  4.3274935008616717 14.9999999999999964   F   F   F
 14.2800000000000011  4.3274935008616717 14.9999999999999964   F   F   F
  2.0400000000000000  7.2124891681027856 14.9999999999999964   F   F   F
  6.1200000000000001  7.2124891681027856 14.9999999999999964   F   F   F
 10.1999999999999922  7.2124891681027856 14.9999999999999964   F   F   F
 14.2800000000000011  7.2124891681027856 14.9999999999999964   F   F   F
  2.0400000000000000 10.0974848353439004 14.9999999999999964   F   F   F
  6.1200000000000001 10.0974848353439004 14.9999999999999964   F   F   F
 10.1999999999999922 10.0974848353439004 14.9999999999999964   F   F   F
 14.2800000000000011 10.0974848353439004 14.9999999999999964   F   F   F
  0.0000000000000000  0.0000000000000000 16.4424978336205569   F   F   F
  4.0800000000000001  0.0000000000000000 16.4424978336205569   F   F   F
  8.1600000000000001  0.0000000000000000 16.4424978336205569   F   F   F
 12.2400000000000002  0.0000000000000000 16.4424978336205569   F   F   F
  0.0000000000000000  2.8849956672411143 16.4424978336205569   F   F   F
  4.0800000000000001  2.8849956672411143 16.4424978336205569   F   F   F
  8.1600000000000001  2.8849956672411143 16.4424978336205569   F   F   F
 12.2400000000000002  2.8849956672411143 16.4424978336205569   F   F   F
  0.0000000000000000  5.7699913344822287 16.4424978336205569   F   F   F
  4.0800000000000001  5.7699913344822287 16.4424978336205569   F   F   F
  8.1600000000000001  5.7699913344822287 16.4424978336205569   F   F   F
 12.2400000000000002  5.7699913344822287 16.4424978336205569   F   F   F
  0.0000000000000000  8.6549870017233435 16.4424978336205569   F   F   F
  4.0800000000000001  8.6549870017233435 16.4424978336205569   F   F   F
  8.1600000000000001  8.6549870017233435 16.4424978336205569   F   F   F
 12.2400000000000002  8.6549870017233435 16.4424978336205569   F   F   F
  2.0416297828757939  1.4430322072483617 18.0663451212551820   T   T   T
  6.1419249148313693  1.4523420548184993 18.0803206178021263   T   T   T
 10.1808190269919638  1.4435905204997312 18.0646295005873760   T   T   T
 14.2776019378878374  1.4441832600224296 18.0715558938873144   T   T   T
  2.0395746260484544  4.3274294892303171 18.0663595013997913   T   T   T
  6.1320825220775230  4.3307865790143127 18.0721318874407793   T   T   T
 10.1855985993736713  4.3363532506520013 18.0588043612259348   T   T   T
 14.2783332324179941  4.3258730191490899 18.0716528828515841   T   T   T
  2.0414275283175920  7.2118398955312744 18.0701806487683676   T   T   T
  6.1034261151067071  7.2184889086437813 18.0572986798856867   T   T   T
 10.2104505750963952  7.2212693734874973 18.0620375971864178   T   T   T
 14.2804626544590967  7.2112995763570877 18.0681139927372776   T   T   T
  2.0428276484177572 10.0992428819644058 18.0698547544897146   T   T   T
  6.1076278332571166 10.1031807901585751 18.0596403203295637   T   T   T
 10.2091612931902489 10.0966451266865587 18.0627755875518865   T   T   T
 14.2788967873850545 10.1002540570190131 18.0694150748771776   T   T   T
  0.0013269447673949  0.0017594074398349 19.4070164171437689   T   T   T
  4.0870795627169310  0.0104591354127811 19.4062116685968178   T   T   T
  8.1614137448933430 11.5108786831047158 19.3984889700214183   T   T   T
 12.2306498036922182  0.0077903164322549 19.4035668532562191   T   T   T
  0.0015654014613170  2.8841366718582213 19.4082283666695155   T   T   T
  4.0837078227882255  2.8880712174536112 19.4003107877360854   T   T   T
  8.1782622982082227  2.9115374622139503 19.4443730262954695   T   T   T
 12.2225561090005659  2.8874231754158290 19.3953090125544705   T   T   T
  0.0001558532409963  5.7680831817762392 19.4072550577368936   T   T   T
  4.0807842451637653  5.7663172905481508 19.4076219069916647   T   T   T
  8.1592144539644558  5.8167161841285635 19.3970992124009918   T   T   T
 12.2336439757632611  5.7675340247890237 19.4039457451446147   T   T   T
  0.0006219809625893  8.6556756148682936 19.4046906879371654   T   T   T
  4.0758563011163380  8.6571771971428557 19.4154340715869225   T   T   T
  8.1521165088550607  8.6575603902540372 19.3963492010293557   T   T   T
 12.2473236679946726  8.6562103750306552 19.4129520530430177   T   T   T
  6.9609841472496603  3.0962251696160461 24.1244008371442220   T   T   T
  7.2352155866994181  3.4097259805703750 22.6923863682969724   T   T   T
  7.9195470308767728  2.6963965885842804 21.9480986052599505   T   T   T
  6.6550664362965843  4.5553326690516789 22.2869804860829603   T   T   T
  5.8803123743140224  2.9646826597149496 24.2582779342733410   T   T   T
  7.2674092286845386  3.9434214240353538 24.7472539808322161   T   T   T
  7.4948875360029659  2.1930142195938065 24.4180209018010892   T   T   T
  6.9056352726757391  4.6903883680931591 21.3346618388007663   T   T   T
