H2CO_Pt100
 1.0000000000000000
     8.3155757467537992    0.0000000000000000    0.0000000000000000
     0.0000000000000000    8.3155757467537992    0.0000000000000000
     0.0000000000000000    0.0000000000000000   35.8800000000000026
 Pt  C   O   H  
  36   1   1   2
Selective dynamics
Cartesian
  1.3859292911256331  1.3859292911256331 15.0000000000000018   F   F   F
  4.1577878733768996  1.3859292911256331 15.0000000000000018   F   F   F
  6.9296464556281654  1.3859292911256331 15.0000000000000018   F   F   F
  1.3859292911256331  4.1577878733768996 15.0000000000000018   F   F   F
  4.1577878733768996  4.1577878733768996 15.0000000000000018   F   F   F
  6.9296464556281654  4.1577878733768996 15.0000000000000018   F   F   F
  1.3859292911256331  6.9296464556281654 15.0000000000000018   F   F   F
  4.1577878733768996  6.9296464556281654 15.0000000000000018   F   F   F
  6.9296464556281654  6.9296464556281654 15.0000000000000018   F   F   F
  0.0000000000000000  0.0000000000000000 16.9600000000000009   F   F   F
  2.7718585822512662  0.0000000000000000 16.9600000000000009   F   F   F
  5.5437171645025325  0.0000000000000000 16.9600000000000009   F   F   F
  0.0000000000000000  2.7718585822512662 16.9600000000000009   F   F   F
  2.7718585822512662  2.7718585822512662 16.9600000000000009   F   F   F
  5.5437171645025325  2.7718585822512662 16.9600000000000009   F   F   F
  0.0000000000000000  5.5437171645025325 16.9600000000000009   F   F   F
  2.7718585822512662  5.5437171645025325 16.9600000000000009   F   F   F
  5.5437171645025325  5.5437171645025325 16.9600000000000009   F   F   F
  1.3880922275289280  1.3878925787610581 18.9398505675525044   T   T   T
  4.1684450497660261  1.3971271004404369 18.9532355459660096   T   T   T
  6.9252850517517519  1.3959950090356272 18.9530537023572627   T   T   T
  1.3863229408869751  4.1597902026521316 18.9461707349819690   T   T   T
  4.1777670012837422  4.1602427828378765 18.9736064691154418   T   T   T
  6.9131915441237544  4.1589603403168569 18.9729291800601736   T   T   T
  1.3806953208787751  6.9409435698024895 18.9354775458408646   T   T   T
  4.1715323958769828  6.9123445253843228 18.9768301147040646   T   T   T
  6.9002606824781259  6.9104581657100486 18.9800708730235144   T   T   T
  8.3046432501274925  0.0082359749240371 20.9280892059471171   T   T   T
  2.7766526867705799  0.0094920378779275 20.9286533816778757   T   T   T
  5.5405146295026206  0.0733136143256396 20.9659004361637287   T   T   T
  0.0201700354500615  2.7740013743216907 20.9187596891591880   T   T   T
  2.7769822621446827  2.7716005688388559 20.9178834669676590   T   T   T
  5.5548839401677270  2.7670465979012926 21.0253505585380083   T   T   T
  0.0073474032516618  5.5569963661410524 20.9107002636417043   T   T   T
  2.7422825248059501  5.5539586586764305 20.9142236770979117   T   T   T
  5.5292809608220663  5.6774882758382690 21.0670533167865877   T   T   T
  5.6293464039491123  3.5959882687122429 22.9383394798064018   T   T   T
  5.4732565732333445  4.9305097087021821 22.9307122957263232   T   T   T
  4.8183754926323470  3.0542009389128979 23.4690297094005800   T   T   T
  6.6321593477740404  3.2666024880315954 23.2922036995386890   T   T   T
