N2_Ag110
 1.0000000000000000
    12.2699999999999996    0.0000000000000000    0.0000000000000000
     0.0000000000000000    5.7841334701059592    0.0000000000000000
     0.0000000000000000    0.0000000000000000   34.3381001025794674
 Ag  N  
  24   2
Selective dynamics
Cartesian
  2.0449999999999999  1.4460333675264898 15.0000000000000053   F   F   F
  6.1349999999999998  1.4460333675264898 15.0000000000000053   F   F   F
 10.2249999999999979  1.4460333675264898 15.0000000000000053   F   F   F
  2.0449999999999999  4.3381001025794692 15.0000000000000053   F   F   F
  6.1349999999999998  4.3381001025794692 15.0000000000000053   F   F   F
 10.2249999999999979  4.3381001025794692 15.0000000000000053   F   F   F
  0.0000000000000000  0.0000000000000000 16.4460333675264891   F   F   F
  4.0899999999999999  0.0000000000000000 16.4460333675264891   F   F   F
  8.1799999999999997  0.0000000000000000 16.4460333675264891   F   F   F
  0.0000000000000000  2.8920667350529796 16.4460333675264891   F   F   F
  4.0899999999999999  2.8920667350529796 16.4460333675264891   F   F   F
  8.1799999999999997  2.8920667350529796 16.4460333675264891   F   F   F
  2.0453404856500192  1.4459189815349303 17.9858949192531092   T   T   T
  6.1349099507541291  1.4465676789594921 17.9874195558975600   T   T   T
 10.2247556273636011  1.4460187680736341 17.9859078752224555   T   T   T
  2.0452967328335450  4.3381811467536027 17.9858201139764802   T   T   T
  6.1349735147251172  4.3377055961065070 17.9865668208095570   T   T   T
 10.2246791953582559  4.3381318214061109 17.9859734492702046   T   T   T
 12.2699277055204234  5.7841098477022781 19.3557884840917573   T   T   T
  4.0901112463941596  5.7835527878587678 19.3568186636540105   T   T   T
  8.1802765984308667  0.0004377364886618 19.3563524881002103   T   T   T
  0.0000213732788859  2.8920907158811073 19.3556600590944079   T   T   T
  4.0890429461827020  2.8920294314510122 19.3536339249432814   T   T   T
  8.1809350846566904  2.8919525140683611 19.3536165545198315   T   T   T
  6.3256996867065265  3.0472447198873214 23.6469911082501874   T   T   T
  5.5432881945247630  2.2564032228281818 23.6799772722785278   T   T   T
