CH3COOH_Pd110
 1.0000000000000000
    11.6699999999999999    0.0000000000000000    0.0000000000000000
     0.0000000000000000    5.5012907576313399    0.0000000000000000
     0.0000000000000000    0.0000000000000000   34.1259680682235071
 Pd  C   O   H  
  24   2   2   4
Selective dynamics
Cartesian
  1.9449999999999998  1.3753226894078348 14.9999999999999929   F   F   F
  5.8349999999999991  1.3753226894078348 14.9999999999999929   F   F   F
  9.7249999999999996  1.3753226894078348 14.9999999999999929   F   F   F
  1.9449999999999998  4.1259680682235054 14.9999999999999929   F   F   F
  5.8349999999999991  4.1259680682235054 14.9999999999999929   F   F   F
  9.7249999999999996  4.1259680682235054 14.9999999999999929   F   F   F
  0.0000000000000000  0.0000000000000000 16.3753226894078345   F   F   F
  3.8899999999999997  0.0000000000000000 16.3753226894078345   F   F   F
  7.7799999999999994  0.0000000000000000 16.3753226894078345   F   F   F
  0.0000000000000000  2.7506453788156695 16.3753226894078345   F   F   F
  3.8899999999999997  2.7506453788156695 16.3753226894078345   F   F   F
  7.7799999999999994  2.7506453788156695 16.3753226894078345   F   F   F
  1.9422142626519892  1.3741925668163899 17.8233394235353764   T   T   T
  5.8327440456315278  1.3747493739386387 17.8115296298937160   T   T   T
  9.7258499418501589  1.3738095931210517 17.8211245135175780   T   T   T
  1.9391214215205781  4.1259111057785294 17.8134506921194351   T   T   T
  5.8442836659939044  4.1265873358066134 17.8034840742749410   T   T   T
  9.7217367733339337  4.1269856813746459 17.8184530182998238   T   T   T
  0.0000843973022193  5.4990602065758489 19.1707041947911989   T   T   T
  3.8966893846348682  5.4922507184572904 19.1372971268055849   T   T   T
  7.7786771362817868  0.0004830061514044 19.1711333810214555   T   T   T
 11.6603947383899591  2.7554612062013373 19.1589021862432531   T   T   T
  3.8967084217820562  2.7500219373202253 19.2113161144826634   T   T   T
  7.7792663373807818  2.7496215900567469 19.1653121252219094   T   T   T
  3.0389187957294777  2.5275569386358252 23.6662038408542905   T   T   T
  3.0074392594506270  2.3454855790099112 22.1837062595783685   T   T   T
  3.8214938226973154  2.8855301190111566 21.4136205131220443   T   T   T
  2.0148828845178928  1.5520222605221530 21.7744130127578224   T   T   T
  3.8738459788360053  3.1670848831613405 23.9521299015240992   T   T   T
  3.1274579015920771  1.5528971791012869 24.1601618124135236   T   T   T
  2.0921691373511866  2.9691272760982481 24.0000445958632760   T   T   T
  2.0576524431656495  1.4911148102706921 20.7766786037674436   T   T   T
