CH4_Pd111
 1.0000000000000000
     8.2519361364470107    0.0000000000000000    0.0000000000000000
     4.1259680682235054    7.1463863245699208    0.0000000000000000
     0.0000000000000000    0.0000000000000000   36.7376776414429358
 Pd  C   H  
  36   1   4
Selective dynamics
Cartesian
  0.0000000000000000  0.0000000000000000 15.0000000000000000   F   F   F
  2.7506453788156700  0.0000000000000000 15.0000000000000000   F   F   F
  5.5012907576313399  0.0000000000000000 15.0000000000000000   F   F   F
  1.3753226894078350  2.3821287748566400 15.0000000000000000   F   F   F
  4.1259680682235054  2.3821287748566400 15.0000000000000000   F   F   F
  6.8766134470391753  2.3821287748566400 15.0000000000000000   F   F   F
  2.7506453788156700  4.7642575497132800 15.0000000000000000   F   F   F
  5.5012907576313399  4.7642575497132800 15.0000000000000000   F   F   F
  8.2519361364470107  4.7642575497132800 15.0000000000000000   F   F   F
  1.3753226894078350  0.7940429249522137 17.2458925471476441   F   F   F
  4.1259680682235045  0.7940429249522137 17.2458925471476441   F   F   F
  6.8766134470391744  0.7940429249522137 17.2458925471476441   F   F   F
  2.7506453788156700  3.1761716998088549 17.2458925471476441   F   F   F
  5.5012907576313399  3.1761716998088549 17.2458925471476441   F   F   F
  8.2519361364470090  3.1761716998088549 17.2458925471476441   F   F   F
  4.1259680682235054  5.5583004746654945 17.2458925471476441   F   F   F
  6.8766134470391753  5.5583004746654945 17.2458925471476441   F   F   F
  9.6272588258548453  5.5583004746654945 17.2458925471476441   F   F   F
  8.2522813556142651  1.5882901452837690 19.5313356020559290   T   T   T
  2.7522221417758095  1.5890507797062772 19.5339812254755110   T   T   T
  5.4998443584900194  1.5890193215113304 19.5340655354120400   T   T   T
  9.6275363678825130  3.9699678906504312 19.5313794243048591   T   T   T
  4.1259314237694378  3.9682540339826833 19.5339168403615417   T   T   T
  6.8762290883261015  3.9699076670681426 19.5316063154902828   T   T   T
 11.0024410333206681  6.3520085489892653 19.5315850152184751   T   T   T
  5.5016155052458622  6.3521348465003511 19.5317748222909309   T   T   T
  8.2520419905537192  6.3529219531651870 19.5317990192404167   T   T   T
  8.2519186967054985  0.0000570496567798 21.8410291221693491   T   T   T
  6.8752456457918170  7.1463728980834240 21.8355143759362562   T   T   T
  9.6291215314491438  7.1462830328483529 21.8346205805285614   T   T   T
  1.3753798352803304  2.3809155827232900 21.8361857960791852   T   T   T
  4.1254497310303222  2.3823981037216315 21.8393209364004193   T   T   T
  6.8776386612967668  2.3807409625543174 21.8346626398126347   T   T   T
  2.7516385218335486  4.7646273258712748 21.8365003444564820   T   T   T
  5.5004719858936495  4.7650424316871867 21.8357481603875918   T   T   T
  8.2525008405494553  4.7638014096614718 21.8376406116116755   T   T   T
  4.2594928257777998  2.2420992828115627 24.7392306298920275   T   T   T
  4.1897356312342531  1.1950864787601998 24.4198189514297681   T   T   T
  3.3841518138690634  2.8041451044292858 24.3860858425159464   T   T   T
  5.1825019784211985  2.6945672949306858 24.3532666676933225   T   T   T
  4.2827484133758125  2.2795634809029948 25.8341973415068296   T   T   T
