C2H4_Pt100
 1.0000000000000000
     8.3155757467537992    0.0000000000000000    0.0000000000000000
     0.0000000000000000    8.3155757467537992    0.0000000000000000
     0.0000000000000000    0.0000000000000000   35.8800000000000026
 Pt  C   H  
  36   2   4
Selective dynamics
Cartesian
  1.3859292911256331  1.3859292911256331 15.0000000000000018   F   F   F
  4.1577878733768996  1.3859292911256331 15.0000000000000018   F   F   F
  6.9296464556281654  1.3859292911256331 15.0000000000000018   F   F   F
  1.3859292911256331  4.1577878733768996 15.0000000000000018   F   F   F
  4.1577878733768996  4.1577878733768996 15.0000000000000018   F   F   F
  6.9296464556281654  4.1577878733768996 15.0000000000000018   F   F   F
  1.3859292911256331  6.9296464556281654 15.0000000000000018   F   F   F
  4.1577878733768996  6.9296464556281654 15.0000000000000018   F   F   F
  6.9296464556281654  6.9296464556281654 15.0000000000000018   F   F   F
  0.0000000000000000  0.0000000000000000 16.9600000000000009   F   F   F
  2.7718585822512662  0.0000000000000000 16.9600000000000009   F   F   F
  5.5437171645025325  0.0000000000000000 16.9600000000000009   F   F   F
  0.0000000000000000  2.7718585822512662 16.9600000000000009   F   F   F
  2.7718585822512662  2.7718585822512662 16.9600000000000009   F   F   F
  5.5437171645025325  2.7718585822512662 16.9600000000000009   F   F   F
  0.0000000000000000  5.5437171645025325 16.9600000000000009   F   F   F
  2.7718585822512662  5.5437171645025325 16.9600000000000009   F   F   F
  5.5437171645025325  5.5437171645025325 16.9600000000000009   F   F   F
  1.3818838227426227  1.3880661818921967 18.9428523747157556   T   T   T
  4.1570962174883546  1.3877913355671669 18.9420451732565454   T   T   T
  6.9264651430042816  1.3872897376201418 18.9441736906769584   T   T   T
  1.3993700260111559  4.1773352033651694 18.9769676271766663   T   T   T
  4.1395882398799699  4.1782525816873521 18.9751987184856006   T   T   T
  6.9262684573329194  4.1574887871142803 18.9457363823961558   T   T   T
  1.3978710199461888  6.9135149205908677 18.9728640177817276   T   T   T
  4.1396050986565207  6.9120787412816709 18.9739314975879552   T   T   T
  6.9266980505711970  6.9312108747613834 18.9449856328515622   T   T   T
  0.0012791082383226  8.3136240276509827 20.9284610404255140   T   T   T
  2.7673694232582573  0.0190459583728808 20.9206489789623760   T   T   T
  5.5319020673677368  8.3125122309527395 20.9295450138559751   T   T   T
  0.0014272538711705  2.7763289181852162 20.9302028773179387   T   T   T
  2.7698006426101296  2.7626284893234154 20.9271790820024322   T   T   T
  5.5310773306389081  2.7775873383134191 20.9322155773641754   T   T   T
  8.2929142128112776  5.5447562665615040 20.9335476135918093   T   T   T
  2.7792848426307732  5.5483363654682893 21.1398425687387750   T   T   T
  5.5653043883454716  5.5454815779120210 20.9376917516433352   T   T   T
  2.0249642949662485  5.5639975285340100 23.1383986863087756   T   T   T
  3.4603555854109858  5.6305911381939735 23.1585423267787682   T   T   T
  1.5269517508851576  4.6237392781039093 23.3785135732263853   T   T   T
  1.4458547739035392  6.4669839470546995 23.3382863085050580   T   T   T
  4.0325576613255318  4.7406224286310303 23.4245609023049042   T   T   T
  3.9474736789624068  6.5824797508842590 23.3753831670015373   T   T   T
