H2CO_Cu100
 1.0000000000000000
    10.2106219203337467    0.0000000000000000    0.0000000000000000
     0.0000000000000000   10.2106219203337467    0.0000000000000000
     0.0000000000000000    0.0000000000000000   35.4149999999999991
 Cu  C   O   H  
  64   1   1   2
Selective dynamics
Cartesian
  1.2763277400417183  1.2763277400417183 15.0000000000000000   F   F   F
  3.8289832201251550  1.2763277400417183 15.0000000000000000   F   F   F
  6.3816387002085921  1.2763277400417183 15.0000000000000000   F   F   F
  8.9342941802920279  1.2763277400417183 15.0000000000000000   F   F   F
  1.2763277400417183  3.8289832201251550 15.0000000000000000   F   F   F
  3.8289832201251550  3.8289832201251550 15.0000000000000000   F   F   F
  6.3816387002085921  3.8289832201251550 15.0000000000000000   F   F   F
  8.9342941802920279  3.8289832201251550 15.0000000000000000   F   F   F
  1.2763277400417183  6.3816387002085921 15.0000000000000000   F   F   F
  3.8289832201251550  6.3816387002085921 15.0000000000000000   F   F   F
  6.3816387002085921  6.3816387002085921 15.0000000000000000   F   F   F
  8.9342941802920279  6.3816387002085921 15.0000000000000000   F   F   F
  1.2763277400417183  8.9342941802920279 15.0000000000000000   F   F   F
  3.8289832201251550  8.9342941802920279 15.0000000000000000   F   F   F
  6.3816387002085921  8.9342941802920279 15.0000000000000000   F   F   F
  8.9342941802920279  8.9342941802920279 15.0000000000000000   F   F   F
  0.0000000000000000  0.0000000000000000 16.8049999999999997   F   F   F
  2.5526554800834367  0.0000000000000000 16.8049999999999997   F   F   F
  5.1053109601668734  0.0000000000000000 16.8049999999999997   F   F   F
  7.6579664402503100  0.0000000000000000 16.8049999999999997   F   F   F
  0.0000000000000000  2.5526554800834367 16.8049999999999997   F   F   F
  2.5526554800834367  2.5526554800834367 16.8049999999999997   F   F   F
  5.1053109601668734  2.5526554800834367 16.8049999999999997   F   F   F
  7.6579664402503100  2.5526554800834367 16.8049999999999997   F   F   F
  0.0000000000000000  5.1053109601668734 16.8049999999999997   F   F   F
  2.5526554800834367  5.1053109601668734 16.8049999999999997   F   F   F
  5.1053109601668734  5.1053109601668734 16.8049999999999997   F   F   F
  7.6579664402503100  5.1053109601668734 16.8049999999999997   F   F   F
  0.0000000000000000  7.6579664402503100 16.8049999999999997   F   F   F
  2.5526554800834367  7.6579664402503100 16.8049999999999997   F   F   F
  5.1053109601668734  7.6579664402503100 16.8049999999999997   F   F   F
  7.6579664402503100  7.6579664402503100 16.8049999999999997   F   F   F
  1.2767532295914659  1.2713756853034202 18.6286505626193417   T   T   T
  3.8472958170265779  1.2948176716506041 18.6667610791910228   T   T   T
  6.3628601001813312  1.2934930008067342 18.6646346559076406   T   T   T
  8.9355724573054012  1.2688351570871270 18.6261030074068792   T   T   T
  1.2756294433359900  3.8348970505368434 18.6286592566984979   T   T   T
  3.8447338613450124  3.8103393752163308 18.6630644609935814   T   T   T
  6.3633559017978731  3.8105592604447129 18.6618532708593605   T   T   T
  8.9364679403400995  3.8346814226847745 18.6258668775510507   T   T   T
  1.2723983371836141  6.3834069332747951 18.6366834558508856   T   T   T
  3.8200653992275404  6.3849317115838469 18.6240238458665033   T   T   T
  6.3885200432702591  6.3854509679469089 18.6246017296828867   T   T   T
  8.9374198948705121  6.3846620292481413 18.6356346461856646   T   T   T
  1.2738797301177387  8.9317813195478184 18.6356339834084572   T   T   T
  3.8241681930107299  8.9357525298775915 18.6285338834331782   T   T   T
  6.3877185917911801  8.9351311017473574 18.6287021770627383   T   T   T
  8.9356969518227860  8.9313306098219574 18.6370660819607217   T   T   T
 10.2104034508963686  0.0008463741455978 20.4151591762530416   T   T   T
  2.5500517871509887 10.2078496541579415 20.4091077149663178   T   T   T
  5.1073984002341666 10.1742056590667040 20.3988616599352994   T   T   T
  7.6593066526193585 10.2092974647053438 20.4119226109833249   T   T   T
  0.0002841189595228  2.5523563126801312 20.4131478180414199   T   T   T
  2.5145840438074174  2.5545841134365821 20.3979591196469130   T   T   T
  5.1185126715040932  2.5673248795859349 20.5679751259805847   T   T   T
  7.7011147246320260  2.5518251794774129 20.3906499330269924   T   T   T
 10.2070733123584461  5.1030188331922686 20.4185727266496642   T   T   T
  2.5499018034631034  5.1076359259192730 20.4099473859449354   T   T   T
  5.1025935795863520  5.1524859802091569 20.3824476450372067   T   T   T
  7.6559397742652706  5.1044816473742989 20.4043541183271735   T   T   T
 10.2103063624906447  7.6575547194594549 20.4182598450452559   T   T   T
  2.5537907553725465  7.6578669039831571 20.4153543041046213   T   T   T
  5.1049545697919694  7.6607752716566075 20.4123490929499773   T   T   T
  7.6558804390193975  7.6557561389068116 20.4183270960452496   T   T   T
  5.6788421417793185  3.2980734353796746 23.3906762279008831   T   T   T
  5.0736426297441515  2.5521183087344368 22.6050265324209363   T   T   T
  5.4986827736288895  3.1744217288000312 24.4680753126432862   T   T   T
  6.3794743510101437  4.0668462861010921 23.0130459256498234   T   T   T
