CO2_Pd100
 1.0000000000000000
    11.0025815152626798    0.0000000000000000    0.0000000000000000
     0.0000000000000000   11.0025815152626798    0.0000000000000000
     0.0000000000000000    0.0000000000000000   35.8350000000000009
 Pd  O   C  
  64   2   1
Selective dynamics
Cartesian
  1.3753226894078348  1.3753226894078348 15.0000000000000000   F   F   F
  4.1259680682235054  1.3753226894078348 15.0000000000000000   F   F   F
  6.8766134470391735  1.3753226894078348 15.0000000000000000   F   F   F
  9.6272588258548453  1.3753226894078348 15.0000000000000000   F   F   F
  1.3753226894078348  4.1259680682235054 15.0000000000000000   F   F   F
  4.1259680682235054  4.1259680682235054 15.0000000000000000   F   F   F
  6.8766134470391735  4.1259680682235054 15.0000000000000000   F   F   F
  9.6272588258548453  4.1259680682235054 15.0000000000000000   F   F   F
  1.3753226894078348  6.8766134470391735 15.0000000000000000   F   F   F
  4.1259680682235054  6.8766134470391735 15.0000000000000000   F   F   F
  6.8766134470391735  6.8766134470391735 15.0000000000000000   F   F   F
  9.6272588258548453  6.8766134470391735 15.0000000000000000   F   F   F
  1.3753226894078348  9.6272588258548453 15.0000000000000000   F   F   F
  4.1259680682235054  9.6272588258548453 15.0000000000000000   F   F   F
  6.8766134470391735  9.6272588258548453 15.0000000000000000   F   F   F
  9.6272588258548453  9.6272588258548453 15.0000000000000000   F   F   F
  0.0000000000000000  0.0000000000000000 16.9450000000000003   F   F   F
  2.7506453788156695  0.0000000000000000 16.9450000000000003   F   F   F
  5.5012907576313390  0.0000000000000000 16.9450000000000003   F   F   F
  8.2519361364470107  0.0000000000000000 16.9450000000000003   F   F   F
  0.0000000000000000  2.7506453788156695 16.9450000000000003   F   F   F
  2.7506453788156695  2.7506453788156695 16.9450000000000003   F   F   F
  5.5012907576313390  2.7506453788156695 16.9450000000000003   F   F   F
  8.2519361364470107  2.7506453788156695 16.9450000000000003   F   F   F
  0.0000000000000000  5.5012907576313390 16.9450000000000003   F   F   F
  2.7506453788156695  5.5012907576313390 16.9450000000000003   F   F   F
  5.5012907576313390  5.5012907576313390 16.9450000000000003   F   F   F
  8.2519361364470107  5.5012907576313390 16.9450000000000003   F   F   F
  0.0000000000000000  8.2519361364470107 16.9450000000000003   F   F   F
  2.7506453788156695  8.2519361364470107 16.9450000000000003   F   F   F
  5.5012907576313390  8.2519361364470107 16.9450000000000003   F   F   F
  8.2519361364470107  8.2519361364470107 16.9450000000000003   F   F   F
  1.3751672714472118  1.3750488012960780 18.9430081244777995   T   T   T
  4.1260406129811926  1.3755061275402429 18.9437314298840782   T   T   T
  6.8765460600330330  1.3754918922964452 18.9437146829641279   T   T   T
  9.6274188482984151  1.3750533006282992 18.9430103275760189   T   T   T
  1.3756055116632468  4.1259694556602131 18.9434325533678063   T   T   T
  4.1273730242418267  4.1259646088878581 18.9470121658299142   T   T   T
  6.8752538279103366  4.1259801926952173 18.9469323866113726   T   T   T
  9.6269573424541335  4.1259667381940615 18.9435023149533208   T   T   T
  1.3751705515926529  6.8768817477504864 18.9430174877173698   T   T   T
  4.1260129903376024  6.8764697912136148 18.9436685002748604   T   T   T
  6.8765741426053637  6.8764803694409027 18.9436589387613665   T   T   T
  9.6274209035553628  6.8768870201021954 18.9430102455136371   T   T   T
  1.3750162165151953  9.6272680763480132 18.9429550296212383   T   T   T
  4.1259487972216222  9.6272621691569569 18.9433560565660635   T   T   T
  6.8766315564743197  9.6272627601241894 18.9433689698030285   T   T   T
  9.6275751938128007  9.6272644421077285 18.9429544904858780   T   T   T
  0.0000118087803495  0.0002553822961830 20.9335094067805869   T   T   T
  2.7509067636024414  0.0009485136978002 20.9337480738614303   T   T   T
  5.5013005357141695 11.0025639925300958 20.9329596547943417   T   T   T
  8.2516636466982138  0.0009702418494001 20.9337545480538942   T   T   T
 11.0025582777136695  2.7508054780403608 20.9330512998532043   T   T   T
  2.7498558338026036  2.7510595384837924 20.9327203316514279   T   T   T
  5.5012861176832928  2.7495479497166340 20.9331321759584732   T   T   T
  8.2528195937591509  2.7510401051114672 20.9325610028988898   T   T   T
 11.0025566075197005  5.5011275666899921 20.9330374544346292   T   T   T
  2.7497506910293565  5.5009082309664068 20.9326372454655925   T   T   T
  5.5012870275768702  5.5023372625230280 20.9329276490384650   T   T   T
  8.2529338095315925  5.5009376332354050 20.9324826640460167   T   T   T
  0.0000093197261333  8.2516798986746149 20.9335117318887605   T   T   T
  2.7509065021556403  8.2509727565405662 20.9337475509986000   T   T   T
  5.5012987394037216  8.2520092765922275 20.9329331256663274   T   T   T
  8.2516374215629291  8.2509121079058492 20.9337788536041636   T   T   T
  5.5405559698280680  2.9758773668293617 24.2119840942401332   T   T   T
  5.5318859905026292  5.3290247062508893 24.1947642924348649   T   T   T
  5.5362009746996970  4.1523178112463182 24.1835557802240366   T   T   T
