H2S_Rh111
 1.0000000000000000
    10.7565083554097622    0.0000000000000000    0.0000000000000000
     0.0000000000000000    9.3154094918044255    0.0000000000000000
     0.0000000000000000    0.0000000000000000   36.5869892211844387
 Rh  S   H  
  64   1   2
Selective dynamics
Cartesian
  0.0000000000000000  0.0000000000000000 15.0000000000000000   F   F   F
  2.6891270888524406  0.0000000000000000 15.0000000000000000   F   F   F
  5.3782541777048811  0.0000000000000000 15.0000000000000000   F   F   F
  8.0673812665573212  0.0000000000000000 15.0000000000000000   F   F   F
  1.3445635444262203  2.3288523729511064 15.0000000000000000   F   F   F
  4.0336906332786606  2.3288523729511064 15.0000000000000000   F   F   F
  6.7228177221311016  2.3288523729511064 15.0000000000000000   F   F   F
  9.4119448109835417  2.3288523729511064 15.0000000000000000   F   F   F
  0.0000000000000000  4.6577047459022127 15.0000000000000000   F   F   F
  2.6891270888524406  4.6577047459022127 15.0000000000000000   F   F   F
  5.3782541777048811  4.6577047459022127 15.0000000000000000   F   F   F
  8.0673812665573212  4.6577047459022127 15.0000000000000000   F   F   F
  1.3445635444262203  6.9865571188533195 15.0000000000000000   F   F   F
  4.0336906332786606  6.9865571188533195 15.0000000000000000   F   F   F
  6.7228177221311016  6.9865571188533195 15.0000000000000000   F   F   F
  9.4119448109835417  6.9865571188533195 15.0000000000000000   F   F   F
  1.3445635444262203  0.7762841243170354 17.1956630737281486   F   F   F
  4.0336906332786606  0.7762841243170354 17.1956630737281486   F   F   F
  6.7228177221311016  0.7762841243170354 17.1956630737281486   F   F   F
  9.4119448109835417  0.7762841243170354 17.1956630737281486   F   F   F
  0.0000000000000000  3.1051364972681417 17.1956630737281486   F   F   F
  2.6891270888524406  3.1051364972681417 17.1956630737281486   F   F   F
  5.3782541777048811  3.1051364972681417 17.1956630737281486   F   F   F
  8.0673812665573212  3.1051364972681417 17.1956630737281486   F   F   F
  1.3445635444262203  5.4339888702192489 17.1956630737281486   F   F   F
  4.0336906332786606  5.4339888702192489 17.1956630737281486   F   F   F
  6.7228177221311016  5.4339888702192489 17.1956630737281486   F   F   F
  9.4119448109835417  5.4339888702192489 17.1956630737281486   F   F   F
  0.0000000000000000  7.7628412431703548 17.1956630737281486   F   F   F
  2.6891270888524406  7.7628412431703548 17.1956630737281486   F   F   F
  5.3782541777048811  7.7628412431703548 17.1956630737281486   F   F   F
  8.0673812665573212  7.7628412431703548 17.1956630737281486   F   F   F
 10.7556199082160902  1.5541690750588812 19.4025308806326393   T   T   T
  2.6899000041731909  1.5566541799776357 19.4030419012871143   T   T   T
  5.3786951035635493  1.5547627893148697 19.4061319860043753   T   T   T
  8.0649159856626493  1.5567783865017313 19.4043397718150352   T   T   T
  1.3483885246305620  3.8812880264529679 19.4047377701411570   T   T   T
  4.0411305261573327  3.8863825723982059 19.4191559532522753   T   T   T
  6.7151077689042946  3.8853462641582190 19.4176680598332361   T   T   T
  9.4058446203201829  3.8814485375193528 19.4055059833169281   T   T   T
 10.7554578239582561  6.2097956637468315 19.3998733028900538   T   T   T
  2.6911438262761358  6.2112211219120059 19.4072494440638188   T   T   T
  5.3779237624492886  6.1935987625508639 19.4287104202471781   T   T   T
  8.0647874516136060  6.2105724799478885 19.4062656929176072   T   T   T
  1.3444212019299910  8.5390276362347777 19.4002373043584555   T   T   T
  4.0370019232838548  8.5356577709997978 19.4035015895321798   T   T   T
  6.7192259993306314  8.5356604373311313 19.4034765820237070   T   T   T
  9.4113220671336180  8.5400866735258258 19.4001869465990424   T   T   T
 10.7562372812797218  0.0024761502106362 21.5884134010995794   T   T   T
  2.6830837332180684  0.0038210687895298 21.5893538177829463   T   T   T
  5.3777065658066805  0.0009639518927915 21.5899222258078467   T   T   T
  8.0736933038847507  0.0029871890046553 21.5910223319681229   T   T   T
  1.3432391075039900  2.3283026624705410 21.5898575056463997   T   T   T
  4.0245616946664748  2.3191565616175875 21.5818819762149481   T   T   T
  6.7344100950714765  2.3169144708691642 21.5893289747666337   T   T   T
  9.4136717994106984  2.3284117865505216 21.5910314699007735   T   T   T
  0.0003155186504400  4.6615186482876974 21.5890236461491973   T   T   T
  2.6730196220050861  4.6604688811198001 21.5904373294902960   T   T   T
  5.3747788171904327  4.6519619222577644 21.6840623902584504   T   T   T
  8.0811217165683580  4.6616862467243250 21.5926763902704373   T   T   T
  1.3436756822078200  6.9879198901935728 21.5897318754096013   T   T   T
  4.0242264369953693  7.0034477198344289 21.5944011816368118   T   T   T
  6.7320355993798637  7.0047208514820190 21.5909361341073804   T   T   T
  9.4126465115593732  6.9878979927711420 21.5885981632084665   T   T   T
  5.4494135083203892  4.4552807526115350 23.9743838404700291   T   T   T
  6.1951017062608384  3.3003100910784227 24.0747195383875869   T   T   T
  4.2889265053316308  3.7827476466716856 24.2595989578488194   T   T   T
