CH4_Rh110
 1.0000000000000000
    11.4089999999999989    0.0000000000000000    0.0000000000000000
     0.0000000000000000    5.3782541777048811    0.0000000000000000
     0.0000000000000000    0.0000000000000000   34.0336906332786597
 Rh  C   H  
  24   1   4
Selective dynamics
Cartesian
  1.9014999999999997  1.3445635444262203 15.0000000000000000   F   F   F
  5.7044999999999995  1.3445635444262203 15.0000000000000000   F   F   F
  9.5074999999999985  1.3445635444262203 15.0000000000000000   F   F   F
  1.9014999999999997  4.0336906332786606 15.0000000000000000   F   F   F
  5.7044999999999995  4.0336906332786606 15.0000000000000000   F   F   F
  9.5074999999999985  4.0336906332786606 15.0000000000000000   F   F   F
  0.0000000000000000  0.0000000000000000 16.3445635444262187   F   F   F
  3.8029999999999995  0.0000000000000000 16.3445635444262187   F   F   F
  7.6059999999999990  0.0000000000000000 16.3445635444262187   F   F   F
  0.0000000000000000  2.6891270888524406 16.3445635444262187   F   F   F
  3.8029999999999995  2.6891270888524406 16.3445635444262187   F   F   F
  7.6059999999999990  2.6891270888524406 16.3445635444262187   F   F   F
  1.8979503699503459  1.3423423295035244 17.7332400917305435   T   T   T
  5.7082875329998037  1.3421874160230678 17.7331150143101048   T   T   T
  9.5077096291760341  1.3423839324613689 17.7362642454962938   T   T   T
  1.8975252282478179  4.0366736734880080 17.7310409405665652   T   T   T
  5.7085857626428611  4.0369356755280315 17.7311349504874514   T   T   T
  9.5076916148580199  4.0357565636530737 17.7364207747233884   T   T   T
  0.0045509792661159  0.0000028234060238 18.9907468951609886   T   T   T
  3.8032565265289362  0.0043951308559365 18.9675861644082318   T   T   T
  7.6016564073712116  0.0000051848889805 18.9910949015612509   T   T   T
  0.0029500524205894  2.6889663799818559 18.9798668431817035   T   T   T
  3.8021468827807090  2.6902656951472639 19.0036866242368490   T   T   T
  7.6028244799158484  2.6889867913626579 18.9796952735545226   T   T   T
  3.8474793514998873  2.7880836910092506 21.6352568716591627   T   T   T
  2.9192171574291845  2.7863653846351704 21.0167344868119770   T   T   T
  3.8343618433660862  3.6967948599878153 22.2501899693000809   T   T   T
  4.7971963576490513  2.7797454451111778 21.0591346265158919   T   T   T
  3.8274370107368747  1.8930596303907108 22.2686150875528348   T   T   T
