H2S_Pd100
 1.0000000000000000
     8.2519361364470107    0.0000000000000000    0.0000000000000000
     0.0000000000000000    8.2519361364470107    0.0000000000000000
     0.0000000000000000    0.0000000000000000   35.8350000000000009
 Pd  S   H  
  36   1   2
Selective dynamics
Cartesian
  1.3753226894078350  1.3753226894078350 15.0000000000000000   F   F   F
  4.1259680682235054  1.3753226894078350 15.0000000000000000   F   F   F
  6.8766134470391780  1.3753226894078350 15.0000000000000000   F   F   F
  1.3753226894078350  4.1259680682235054 15.0000000000000000   F   F   F
  4.1259680682235054  4.1259680682235054 15.0000000000000000   F   F   F
  6.8766134470391780  4.1259680682235054 15.0000000000000000   F   F   F
  1.3753226894078350  6.8766134470391780 15.0000000000000000   F   F   F
  4.1259680682235054  6.8766134470391780 15.0000000000000000   F   F   F
  6.8766134470391780  6.8766134470391780 15.0000000000000000   F   F   F
  0.0000000000000000  0.0000000000000000 16.9450000000000003   F   F   F
  2.7506453788156700  0.0000000000000000 16.9450000000000003   F   F   F
  5.5012907576313399  0.0000000000000000 16.9450000000000003   F   F   F
  0.0000000000000000  2.7506453788156700 16.9450000000000003   F   F   F
  2.7506453788156700  2.7506453788156700 16.9450000000000003   F   F   F
  5.5012907576313399  2.7506453788156700 16.9450000000000003   F   F   F
  0.0000000000000000  5.5012907576313399 16.9450000000000003   F   F   F
  2.7506453788156700  5.5012907576313399 16.9450000000000003   F   F   F
  5.5012907576313399  5.5012907576313399 16.9450000000000003   F   F   F
  1.3841785088624801  1.3871793447407197 18.9475149544897228   T   T   T
  4.1257981693406780  1.3799341853790268 18.9352506195786709   T   T   T
  6.8837562638609668  1.3662190067891029 18.9388728904471044   T   T   T
  1.3635328973860896  4.1417111385077652 18.9427512618848084   T   T   T
  4.1138886793050293  4.1355225424422084 18.9410617478589920   T   T   T
  6.8682272114943990  4.1251507098901108 18.9358454551963185   T   T   T
  1.3807159699933742  6.8692938204345042 18.9625166030095755   T   T   T
  4.1088224839454455  6.8840919480085567 18.9446317292429143   T   T   T
  6.8626357002369840  6.8662741911364389 18.9494982699084602   T   T   T
  0.0030297828724047  8.2493410699235650 20.9331245067994374   T   T   T
  2.7519661206303643  0.0703450800910682 20.9362909706253113   T   T   T
  5.4921326033118785  8.2430886834070805 20.9288909107619254   T   T   T
  0.0033926717423928  2.7586951717954618 20.9260258902683915   T   T   T
  2.7554506357655719  2.7784739173613491 20.9605146529184339   T   T   T
  5.5190110227970939  2.7276177054971886 20.8955189280642699   T   T   T
  8.1760834946987568  5.4989532322217274 20.9387445351971628   T   T   T
  2.6480824290969212  5.5980735726986044 21.0148490523171496   T   T   T
  5.4649573691738871  5.4881677042693466 20.9650776986376144   T   T   T
  3.3901677121002036  4.8239866038005053 23.0326630053388506   T   T   T
  3.3194953586697280  3.4178067948799415 22.6443114596224326   T   T   T
  4.7836888322179734  4.8482427646009532 22.6282887747934609   T   T   T
