CH3CH2OH_Ir111
 1.0000000000000000
    10.8611601590253706    0.0000000000000000    0.0000000000000000
     0.0000000000000000    9.4060406122874021    0.0000000000000000
     0.0000000000000000    0.0000000000000000   36.6510751010644924
 Ir  C   O   H  
  64   2   1   6
Selective dynamics
Cartesian
  0.0000000000000000  0.0000000000000000 15.0000000000000018   F   F   F
  2.7152900397563422  0.0000000000000000 15.0000000000000018   F   F   F
  5.4305800795126844  0.0000000000000000 15.0000000000000018   F   F   F
  8.1458701192690270  0.0000000000000000 15.0000000000000018   F   F   F
  1.3576450198781711  2.3515101530718505 15.0000000000000018   F   F   F
  4.0729350596345135  2.3515101530718505 15.0000000000000018   F   F   F
  6.7882250993908571  2.3515101530718505 15.0000000000000018   F   F   F
  9.5035151391471988  2.3515101530718505 15.0000000000000018   F   F   F
  0.0000000000000000  4.7030203061437010 15.0000000000000018   F   F   F
  2.7152900397563422  4.7030203061437010 15.0000000000000018   F   F   F
  5.4305800795126844  4.7030203061437010 15.0000000000000018   F   F   F
  8.1458701192690270  4.7030203061437010 15.0000000000000018   F   F   F
  1.3576450198781711  7.0545304592155516 15.0000000000000018   F   F   F
  4.0729350596345135  7.0545304592155516 15.0000000000000018   F   F   F
  6.7882250993908571  7.0545304592155516 15.0000000000000018   F   F   F
  9.5035151391471988  7.0545304592155516 15.0000000000000018   F   F   F
  1.3576450198781711  0.7838367176906168 17.2170250336881665   F   F   F
  4.0729350596345135  0.7838367176906168 17.2170250336881665   F   F   F
  6.7882250993908571  0.7838367176906168 17.2170250336881665   F   F   F
  9.5035151391471988  0.7838367176906168 17.2170250336881665   F   F   F
  0.0000000000000000  3.1353468707624672 17.2170250336881665   F   F   F
  2.7152900397563422  3.1353468707624672 17.2170250336881665   F   F   F
  5.4305800795126844  3.1353468707624672 17.2170250336881665   F   F   F
  8.1458701192690270  3.1353468707624672 17.2170250336881665   F   F   F
  1.3576450198781711  5.4868570238343182 17.2170250336881665   F   F   F
  4.0729350596345135  5.4868570238343182 17.2170250336881665   F   F   F
  6.7882250993908571  5.4868570238343182 17.2170250336881665   F   F   F
  9.5035151391471988  5.4868570238343182 17.2170250336881665   F   F   F
  0.0000000000000000  7.8383671769061687 17.2170250336881665   F   F   F
  2.7152900397563422  7.8383671769061687 17.2170250336881665   F   F   F
  5.4305800795126844  7.8383671769061687 17.2170250336881665   F   F   F
  8.1458701192690270  7.8383671769061687 17.2170250336881665   F   F   F
 10.8604296359343895  1.5644995870543950 19.4450942764634966   T   T   T
  2.7125928301114093  1.5679000241037491 19.4439364335851295   T   T   T
  5.4279486928413192  1.5665935425581241 19.4474711817665167   T   T   T
  8.1435039363424480  1.5582847778603335 19.4746748112508108   T   T   T
  1.3567678632087605  3.9177828542292654 19.4442630110837449   T   T   T
  4.0705020442971120  3.9191503376802248 19.4416286819703892   T   T   T
  6.7879384061750532  3.9166592050862965 19.4417315095042227   T   T   T
  9.5024108860949728  3.9203242145743431 19.4382740130004201   T   T   T
  0.0000661427549770  6.2707782195940780 19.4416573066300913   T   T   T
  2.7139880861718768  6.2695827550068692 19.4454448818828993   T   T   T
  5.4277379366650713  6.2714253358352545 19.4441572225202144   T   T   T
  8.1443678421093502  6.2688467696034555 19.4472636811968087   T   T   T
  1.3569836613859796  8.6187291707555236 19.4394107445764561   T   T   T
  4.0721628263651013  8.6187604301306653 19.4425255981175340   T   T   T
  6.7992692860169761  8.6297701654975008 19.4806531143546877   T   T   T
  9.4919641619839403  8.6269852086578283 19.4751214859500870   T   T   T
  0.0198672914685085  9.4058680171749760 21.6482149074965839   T   T   T
  2.7164944609813948  0.0004454155551834 21.6581660203731445   T   T   T
  5.4095981694027468  9.4055617808966137 21.6482252962338677   T   T   T
  8.1304119970733630  9.3896093650810375 21.7119269462454589   T   T   T
  1.3529865982031359  2.3509974006707037 21.6620058687924626   T   T   T
  4.0708781751216554  2.3504430160861194 21.6582010385322725   T   T   T
  6.7754951481856427  2.3615433173867562 21.6497081803699629   T   T   T
  9.5150300652517874  2.3689292222506588 21.6496452640273382   T   T   T
  0.0024076238196033  4.6971372730219150 21.6593349297667750   T   T   T
  2.7137000274525449  4.7012956986153540 21.6580522076254027   T   T   T
  5.4221627163682014  4.6984011438111537 21.6557101026484524   T   T   T
  8.1452032881748568  4.6998008225035859 21.6543629722124713   T   T   T
  1.3522427373721067  7.0529124206518539 21.6542723781277893   T   T   T
  4.0736962817744127  7.0529366326503444 21.6569231384728340   T   T   T
  6.7789715460810527  7.0396248657752940 21.6475414164221824   T   T   T
  9.5115123417887997  7.0367489819819786 21.6500384627171840   T   T   T
  7.1428309266808521  7.8668377048887770 25.2391513051832668   T   T   T
  7.2115619187234543  9.3225130505181788 24.8741981320380248   T   T   T
  8.3206526404986914  0.1499065105314669 23.9376706344145695   T   T   T
  8.5589533567542535  1.1071966982224322 23.9475471471255545   T   T   T
  6.2856840562513883  0.2838281900681370 24.3903763775374784   T   T   T
  7.4083149900014362  0.5603418287212628 25.7448798439524147   T   T   T
  8.0746253302411493  7.5404451285467227 25.7125224431928423   T   T   T
  6.3081554144749106  7.6921617995780238 25.9308611382787539   T   T   T
  6.9747069773520902  7.2457729484213429 24.3453866972054023   T   T   T
