H2CO_Ag111
 1.0000000000000000
     8.6762002051589384    0.0000000000000000    0.0000000000000000
     4.3381001025794710    7.5138097859873962    0.0000000000000000
     0.0000000000000000    0.0000000000000000   37.0840878029567094
 Ag  C   O   H  
  36   1   1   2
Selective dynamics
Cartesian
  0.0000000000000000  0.0000000000000000 14.9999999999999982   F   F   F
  2.8920667350529787  0.0000000000000000 14.9999999999999982   F   F   F
  5.7841334701059575  0.0000000000000000 14.9999999999999982   F   F   F
  1.4460333675264903  2.5046032619957987 14.9999999999999982   F   F   F
  4.3381001025794692  2.5046032619957987 14.9999999999999982   F   F   F
  7.2301668376324475  2.5046032619957987 14.9999999999999982   F   F   F
  2.8920667350529805  5.0092065239915975 14.9999999999999982   F   F   F
  5.7841334701059592  5.0092065239915975 14.9999999999999982   F   F   F
  8.6762002051589384  5.0092065239915975 14.9999999999999982   F   F   F
  1.4460333675264898  0.8348677539985995 17.3613626009855686   F   F   F
  4.3381001025794683  0.8348677539985995 17.3613626009855686   F   F   F
  7.2301668376324484  0.8348677539985995 17.3613626009855686   F   F   F
  2.8920667350529801  3.3394710159943979 17.3613626009855686   F   F   F
  5.7841334701059592  3.3394710159943979 17.3613626009855686   F   F   F
  8.6762002051589384  3.3394710159943979 17.3613626009855686   F   F   F
  4.3381001025794710  5.8440742779901944 17.3613626009855686   F   F   F
  7.2301668376324493  5.8440742779901944 17.3613626009855686   F   F   F
 10.1222335726854276  5.8440742779901944 17.3613626009855686   F   F   F
  8.6763725288229594  1.6694974882692677 19.7674112078746376   T   T   T
  2.8933636795362268  1.6705112634163752 19.7726109792133826   T   T   T
  5.7821502561033009  1.6703855980136197 19.7710778132587919   T   T   T
 10.1225802523393078  4.1739482432556798 19.7685684128217325   T   T   T
  4.3376585474712197  4.1723098459632508 19.7718176011374496   T   T   T
  7.2301656970783483  4.1743736672314649 19.7668864454897921   T   T   T
 11.5686175149499828  6.6791270896845463 19.7668300578081251   T   T   T
  5.7839781219811295  6.6791381150988895 19.7670897507540211   T   T   T
  8.6760645579031515  6.6791954543699772 19.7679897942765130   T   T   T
  0.0006036808593239  0.0003007170937359 22.1876781292894236   T   T   T
  7.2293433049223967  7.5107425562622820 22.1850074811323523   T   T   T
 10.1233696854631550  7.5132022469245312 22.1859593314871582   T   T   T
 10.1177573785599648  2.5051285882343111 22.1842687425290350   T   T   T
  4.3422460075725215  2.5055378389380234 22.1861288440178868   T   T   T
  7.2301184649609445  2.5045101347107934 22.1868353499974305   T   T   T
 11.5679754388585145  5.0113673022801244 22.1851953741921761   T   T   T
  5.7842238003657718  5.0093983246104994 22.1863830711119547   T   T   T
  8.6765187255200349  5.0095551661721283 22.1886981652054551   T   T   T
  4.1242024850629804  2.5231091286338314 26.2664247334320748   T   T   T
  3.5549599717235125  2.3133026603262130 25.2105298787020935   T   T   T
  3.5553683216108869  2.4369713815624285 27.2118553362944589   T   T   T
  5.2007567926585416  2.7973427207396759 26.2840294987677900   T   T   T
