N2_Cu110
 1.0000000000000000
    10.8300000000000001    0.0000000000000000    0.0000000000000000
     0.0000000000000000    5.1053109601668734    0.0000000000000000
     0.0000000000000000    0.0000000000000000   33.8289832201251528
 Cu  N  
  24   2
Selective dynamics
Cartesian
  1.8049999999999999  1.2763277400417183 14.9999999999999982   F   F   F
  5.4149999999999991  1.2763277400417183 14.9999999999999982   F   F   F
  9.0249999999999986  1.2763277400417183 14.9999999999999982   F   F   F
  1.8049999999999999  3.8289832201251550 14.9999999999999982   F   F   F
  5.4149999999999991  3.8289832201251550 14.9999999999999982   F   F   F
  9.0249999999999986  3.8289832201251550 14.9999999999999982   F   F   F
  0.0000000000000000  0.0000000000000000 16.2763277400417152   F   F   F
  3.6099999999999999  0.0000000000000000 16.2763277400417152   F   F   F
  7.2199999999999998  0.0000000000000000 16.2763277400417152   F   F   F
  0.0000000000000000  2.5526554800834367 16.2763277400417152   F   F   F
  3.6099999999999999  2.5526554800834367 16.2763277400417152   F   F   F
  7.2199999999999998  2.5526554800834367 16.2763277400417152   F   F   F
  1.8038056581459796  1.2825841001847340 17.5948273227588423   T   T   T
  5.4171096379861305  1.2818966970965109 17.5931710305185263   T   T   T
  9.0260180390320617  1.2721424400641430 17.6088790526416865   T   T   T
  1.8037970704695065  3.8222801173398149 17.5954753057421343   T   T   T
  5.4171163859797744  3.8231113014835905 17.5939424164434044   T   T   T
  9.0260262521677177  3.8331268669354452 17.6088465374750669   T   T   T
  0.0147771122828442  5.1052726665102348 18.7701216382009406   T   T   T
  3.6098726484869719  5.1044415572015893 18.7166112016810509   T   T   T
  7.2069589248816044  5.1052880178796851 18.7697274138506671   T   T   T
 10.8216453406534576  2.5525315419854380 18.7697617164984258   T   T   T
  3.6107236240941143  2.5525196660980960 18.8796668981478319   T   T   T
  7.2306430516569327  2.5525558378632200 18.7680053140907503   T   T   T
  3.6598391271566020  2.5296019181689893 20.7703919617028241   T   T   T
  3.7068820793645987  2.5080226562994734 21.8928365524870223   T   T   T
