SO2_Pd111
 1.0000000000000000
     8.2519361364470107    0.0000000000000000    0.0000000000000000
     4.1259680682235054    7.1463863245699208    0.0000000000000000
     0.0000000000000000    0.0000000000000000   36.7376776414429358
 Pd  S   O  
  36   1   2
Selective dynamics
Cartesian
  0.0000000000000000  0.0000000000000000 15.0000000000000000   F   F   F
  2.7506453788156700  0.0000000000000000 15.0000000000000000   F   F   F
  5.5012907576313399  0.0000000000000000 15.0000000000000000   F   F   F
  1.3753226894078350  2.3821287748566400 15.0000000000000000   F   F   F
  4.1259680682235054  2.3821287748566400 15.0000000000000000   F   F   F
  6.8766134470391753  2.3821287748566400 15.0000000000000000   F   F   F
  2.7506453788156700  4.7642575497132800 15.0000000000000000   F   F   F
  5.5012907576313399  4.7642575497132800 15.0000000000000000   F   F   F
  8.2519361364470107  4.7642575497132800 15.0000000000000000   F   F   F
  1.3753226894078350  0.7940429249522137 17.2458925471476441   F   F   F
  4.1259680682235045  0.7940429249522137 17.2458925471476441   F   F   F
  6.8766134470391744  0.7940429249522137 17.2458925471476441   F   F   F
  2.7506453788156700  3.1761716998088549 17.2458925471476441   F   F   F
  5.5012907576313399  3.1761716998088549 17.2458925471476441   F   F   F
  8.2519361364470090  3.1761716998088549 17.2458925471476441   F   F   F
  4.1259680682235054  5.5583004746654945 17.2458925471476441   F   F   F
  6.8766134470391753  5.5583004746654945 17.2458925471476441   F   F   F
  9.6272588258548453  5.5583004746654945 17.2458925471476441   F   F   F
  8.2348498933015168  1.6011444494430174 19.5207405219175989   T   T   T
  2.7388600655890354  1.5931533699782032 19.5371535812945538   T   T   T
  5.4770335236860843  1.5968345442520073 19.5389404731385881   T   T   T
  9.6154896255587303  3.9827697826454838 19.5467336506713600   T   T   T
  4.1041698362691825  3.9757990418591804 19.5352850362241810   T   T   T
  6.8484692432427687  3.9827264250040724 19.5482412365593561   T   T   T
 10.9862670177868811  6.3539072932665350 19.5237955908508134   T   T   T
  5.4825508337777205  6.3485338732657537 19.5317850029688564   T   T   T
  8.2372897506243010  6.3532792213415652 19.5280274166935897   T   T   T
  8.2164334565992174  0.0333392892126061 21.8028855932810188   T   T   T
  6.8450643590445557  7.1363999897733006 21.8277973202382931   T   T   T
  9.5907667258119051  7.1411153909973901 21.8335464912967510   T   T   T
  9.5817599194759016  2.3936439239935541 21.8272235795745004   T   T   T
  4.0860281145941775  2.3397069215441673 21.8501319946038706   T   T   T
  6.8516189561524081  2.3910729257396151 21.8291478174306519   T   T   T
 10.9352416528904612  4.7895466732428078 21.8926781244190884   T   T   T
  5.4866297409190343  4.7804252786945547 21.9157116411252488   T   T   T
  8.2143790287359888  4.7703500376753931 21.8592539523526526   T   T   T
  4.0633165306444994  4.5678563037270763 23.6838812952362581   T   T   T
  4.0613129562011849  5.5237277529432287 24.7831083546438364   T   T   T
  4.0393030341261857  3.1323311748833600 24.0912449399835396   T   T   T
