CH3OH_Au100
 1.0000000000000000
    11.5399826689644573    0.0000000000000000    0.0000000000000000
     0.0000000000000000   11.5399826689644573    0.0000000000000000
     0.0000000000000000    0.0000000000000000   36.1199999999999974
 Au  C   O   H  
  64   1   1   4
Selective dynamics
Cartesian
  1.4424978336205572  1.4424978336205572 14.9999999999999982   F   F   F
  4.3274935008616717  1.4424978336205572 14.9999999999999982   F   F   F
  7.2124891681027856  1.4424978336205572 14.9999999999999982   F   F   F
 10.0974848353439004  1.4424978336205572 14.9999999999999982   F   F   F
  1.4424978336205572  4.3274935008616717 14.9999999999999982   F   F   F
  4.3274935008616717  4.3274935008616717 14.9999999999999982   F   F   F
  7.2124891681027856  4.3274935008616717 14.9999999999999982   F   F   F
 10.0974848353439004  4.3274935008616717 14.9999999999999982   F   F   F
  1.4424978336205572  7.2124891681027856 14.9999999999999982   F   F   F
  4.3274935008616717  7.2124891681027856 14.9999999999999982   F   F   F
  7.2124891681027856  7.2124891681027856 14.9999999999999982   F   F   F
 10.0974848353439004  7.2124891681027856 14.9999999999999982   F   F   F
  1.4424978336205572 10.0974848353439004 14.9999999999999982   F   F   F
  4.3274935008616717 10.0974848353439004 14.9999999999999982   F   F   F
  7.2124891681027856 10.0974848353439004 14.9999999999999982   F   F   F
 10.0974848353439004 10.0974848353439004 14.9999999999999982   F   F   F
  0.0000000000000000  0.0000000000000000 17.0399999999999991   F   F   F
  2.8849956672411143  0.0000000000000000 17.0399999999999991   F   F   F
  5.7699913344822287  0.0000000000000000 17.0399999999999991   F   F   F
  8.6549870017233435  0.0000000000000000 17.0399999999999991   F   F   F
  0.0000000000000000  2.8849956672411143 17.0399999999999991   F   F   F
  2.8849956672411143  2.8849956672411143 17.0399999999999991   F   F   F
  5.7699913344822287  2.8849956672411143 17.0399999999999991   F   F   F
  8.6549870017233435  2.8849956672411143 17.0399999999999991   F   F   F
  0.0000000000000000  5.7699913344822287 17.0399999999999991   F   F   F
  2.8849956672411143  5.7699913344822287 17.0399999999999991   F   F   F
  5.7699913344822287  5.7699913344822287 17.0399999999999991   F   F   F
  8.6549870017233435  5.7699913344822287 17.0399999999999991   F   F   F
  0.0000000000000000  8.6549870017233435 17.0399999999999991   F   F   F
  2.8849956672411143  8.6549870017233435 17.0399999999999991   F   F   F
  5.7699913344822287  8.6549870017233435 17.0399999999999991   F   F   F
  8.6549870017233435  8.6549870017233435 17.0399999999999991   F   F   F
  1.4424886552149911  1.4425760279413105 19.1845731483299460   T   T   T
  4.3278437667986829  1.4421610637886788 19.1849418119844763   T   T   T
  7.2114516327855851  1.4415225104502898 19.1841309362662109   T   T   T
 10.0982052295758926  1.4415829516265519 19.1841478709704987   T   T   T
  1.4422303155405811  4.3277594079448303 19.1851384663992768   T   T   T
  4.3277738676842930  4.3275725167499877 19.1848611068780812   T   T   T
  7.2121871098594941  4.3283059116384566 19.1839021348215901   T   T   T
 10.0979522937998212  4.3281312755449566 19.1836654813232350   T   T   T
  1.4418854209571363  7.2118312205466362 19.1836808426671261   T   T   T
  4.3276067837319774  7.2115110511528338 19.1831268448895038   T   T   T
  7.2153110178954138  7.2154025418987446 19.1893672135568067   T   T   T
 10.0945100678407940  7.2155923023381909 19.1890075597725343   T   T   T
  1.4419199489133439 10.0978770184305962 19.1839026477942127   T   T   T
  4.3272969445478768 10.0983547598058294 19.1826533289527461   T   T   T
  7.2152050285887350 10.0957311427381065 19.1905324491958140   T   T   T
 10.0952406553152851 10.0962980780329747 19.1892553152999099   T   T   T
 11.5376116308874135 11.5381917831696121 21.3090001385724932   T   T   T
  2.8847656992462993 11.5399331003465928 21.3084310810550974   T   T   T
  5.7699579661544815 11.5390448090064037 21.3087456191842897   T   T   T
  8.6565263889282740  0.0099850139010632 21.3013708442902079   T   T   T
 11.5399370789557238  2.8850229170037296 21.3083952865302351   T   T   T
  2.8850403037663814  2.8850185531522947 21.3083062265576437   T   T   T
  5.7701754916175174  2.8843789137459113 21.3082350926838870   T   T   T
  8.6546616600981476  2.8853956773872356 21.3091385650927450   T   T   T
 11.5378146070719030  5.7722669941141422 21.3105371848136009   T   T   T
  2.8850720345236520  5.7701948040650732 21.3082774155160628   T   T   T
  5.7717087306797019  5.7736699258697710 21.3102153965893208   T   T   T
  8.6553115600648898  5.7626780062529050 21.3039857148896523   T   T   T
  0.0072758391759300  8.6547188165570308 21.3036529872235540   T   T   T
  2.8849503849305371  8.6550715902617323 21.3098008566270245   T   T   T
  5.7605506821333163  8.6542853752037061 21.3066657007935163   T   T   T
  8.6596856094804604  8.6499991363054303 21.3066238617686494   T   T   T
  8.8551646200767671  8.3745676005706908 25.1834725658081240   T   T   T
  8.3010568936080311  9.1719251904574577 24.1167214462552515   T   T   T
  9.9460822899853980  8.4370753604634494 25.1018668078891913   T   T   T
  7.3308683408414144  9.0787471254762764 24.1106401635590366   T   T   T
  8.5632893171518845  8.7754241335961929 26.1648851569707546   T   T   T
  8.5471047840119727  7.3186192252671232 25.1199830018437886   T   T   T
