CH3OH_Ag111
 1.0000000000000000
     8.6762002051589384    0.0000000000000000    0.0000000000000000
     4.3381001025794710    7.5138097859873962    0.0000000000000000
     0.0000000000000000    0.0000000000000000   37.0840878029567094
 Ag  C   O   H  
  36   1   1   4
Selective dynamics
Cartesian
  0.0000000000000000  0.0000000000000000 14.9999999999999982   F   F   F
  2.8920667350529787  0.0000000000000000 14.9999999999999982   F   F   F
  5.7841334701059575  0.0000000000000000 14.9999999999999982   F   F   F
  1.4460333675264903  2.5046032619957987 14.9999999999999982   F   F   F
  4.3381001025794692  2.5046032619957987 14.9999999999999982   F   F   F
  7.2301668376324475  2.5046032619957987 14.9999999999999982   F   F   F
  2.8920667350529805  5.0092065239915975 14.9999999999999982   F   F   F
  5.7841334701059592  5.0092065239915975 14.9999999999999982   F   F   F
  8.6762002051589384  5.0092065239915975 14.9999999999999982   F   F   F
  1.4460333675264898  0.8348677539985995 17.3613626009855686   F   F   F
  4.3381001025794683  0.8348677539985995 17.3613626009855686   F   F   F
  7.2301668376324484  0.8348677539985995 17.3613626009855686   F   F   F
  2.8920667350529801  3.3394710159943979 17.3613626009855686   F   F   F
  5.7841334701059592  3.3394710159943979 17.3613626009855686   F   F   F
  8.6762002051589384  3.3394710159943979 17.3613626009855686   F   F   F
  4.3381001025794710  5.8440742779901944 17.3613626009855686   F   F   F
  7.2301668376324493  5.8440742779901944 17.3613626009855686   F   F   F
 10.1222335726854276  5.8440742779901944 17.3613626009855686   F   F   F
  8.6788053249942170  1.6703009884970601 19.7596713868287956   T   T   T
  2.8896050394643358  1.6702296401459384 19.7600935790522207   T   T   T
  5.7839288053885154  1.6699847707437694 19.7677429112991483   T   T   T
 10.1223376487403769  4.1713846446472784 19.7571781150537866   T   T   T
  4.3446099730247916  4.1778479188711142 19.7829997968112679   T   T   T
  7.2232190610603713  4.1779061023082704 19.7809542108796563   T   T   T
 11.5678671320349125  6.6796614277560629 19.7632636061672677   T   T   T
  5.7837338952886252  6.6709559065695645 19.7824661969132087   T   T   T
  8.6772785216384367  6.6802060585240177 19.7629266054249833   T   T   T
  8.6726763417674846  0.0038661835387339 22.1747629068168806   T   T   T
  2.8949067551792735  0.0045073544519002 22.1728414626767218   T   T   T
 10.1220502976299205  7.5137237415009421 22.1912661088082999   T   T   T
 10.1229507450552010  2.5062194762041541 22.1890708841817883   T   T   T
  4.3331580014527633  2.4978257218707305 22.1730897139135195   T   T   T
  7.2360070357702968  2.4967026358992279 22.1698903320681495   T   T   T
 11.5602074164871986  5.0102171350958535 22.1702845792846972   T   T   T
  5.7889574635304628  5.0109118156062973 22.2281194833863616   T   T   T
  8.6818697216282779  5.0098937852142296 22.1650599516930562   T   T   T
  6.3725525706417887  5.0498744684025940 26.0710982751912503   T   T   T
  5.5373756736019200  4.6777258305643148 24.9509293936721583   T   T   T
  7.4148621930242813  4.9155875561759386 25.7637899950955891   T   T   T
  4.6008033469927252  4.7732381290116281 25.1990630983150652   T   T   T
  6.2241324245579692  6.0995633563621725 26.3645358946157842   T   T   T
  6.1826419553250869  4.4068852718557308 26.9433387988509914   T   T   T
