C2H4_Cu110
 1.0000000000000000
    10.8300000000000001    0.0000000000000000    0.0000000000000000
     0.0000000000000000    5.1053109601668734    0.0000000000000000
     0.0000000000000000    0.0000000000000000   33.8289832201251528
 Cu  C   H  
  24   2   4
Selective dynamics
Cartesian
  1.8049999999999999  1.2763277400417183 14.9999999999999982   F   F   F
  5.4149999999999991  1.2763277400417183 14.9999999999999982   F   F   F
  9.0249999999999986  1.2763277400417183 14.9999999999999982   F   F   F
  1.8049999999999999  3.8289832201251550 14.9999999999999982   F   F   F
  5.4149999999999991  3.8289832201251550 14.9999999999999982   F   F   F
  9.0249999999999986  3.8289832201251550 14.9999999999999982   F   F   F
  0.0000000000000000  0.0000000000000000 16.2763277400417152   F   F   F
  3.6099999999999999  0.0000000000000000 16.2763277400417152   F   F   F
  7.2199999999999998  0.0000000000000000 16.2763277400417152   F   F   F
  0.0000000000000000  2.5526554800834367 16.2763277400417152   F   F   F
  3.6099999999999999  2.5526554800834367 16.2763277400417152   F   F   F
  7.2199999999999998  2.5526554800834367 16.2763277400417152   F   F   F
  1.8283354225818342  1.2784818080271472 17.5975089196512293   T   T   T
  5.3952372996900673  1.2788594001966105 17.5944963248963582   T   T   T
  9.0258851340936506  1.2731327919993276 17.6056650696562365   T   T   T
  1.8197401311883661  3.8260378455711028 17.5873832285250273   T   T   T
  5.4037453577001164  3.8253899308803683 17.5846579074241411   T   T   T
  9.0258703065230677  3.8320826456155190 17.6065582361244992   T   T   T
  0.0135216869511368  0.0007936553501049 18.7585934880329717   T   T   T
  3.6145483600791315  5.0930193980514673 18.7954165810938996   T   T   T
  7.2085868634057793  0.0005580916294556 18.7590300658242271   T   T   T
  0.0020774353359498  2.5524800020234126 18.7528352829684692   T   T   T
  3.6108392308304778  2.5535978707004130 18.9459987033520392   T   T   T
  7.2207042283384064  2.5521715694753926 18.7530556399227741   T   T   T
  3.6240049612817855  3.4200676029608523 20.8470999982883534   T   T   T
  3.6283766788738063  1.9966838252221388 20.9081830459469167   T   T   T
  2.6943641852886042  3.9417291598746003 21.0813714722992991   T   T   T
  4.5554686651175631  3.9464888674212601 21.0627824136785904   T   T   T
  2.7046392179128480  1.4842104264761478 21.1775725783165676   T   T   T
  4.5606006264308441  1.4892182649044492 21.1568943666880465   T   T   T
