CH3COOH_Rh111
 1.0000000000000000
    10.7565083554097622    0.0000000000000000    0.0000000000000000
     0.0000000000000000    9.3154094918044255    0.0000000000000000
     0.0000000000000000    0.0000000000000000   36.5869892211844387
 Rh  C   O   H  
  64   2   2   4
Selective dynamics
Cartesian
  0.0000000000000000  0.0000000000000000 15.0000000000000000   F   F   F
  2.6891270888524406  0.0000000000000000 15.0000000000000000   F   F   F
  5.3782541777048811  0.0000000000000000 15.0000000000000000   F   F   F
  8.0673812665573212  0.0000000000000000 15.0000000000000000   F   F   F
  1.3445635444262203  2.3288523729511064 15.0000000000000000   F   F   F
  4.0336906332786606  2.3288523729511064 15.0000000000000000   F   F   F
  6.7228177221311016  2.3288523729511064 15.0000000000000000   F   F   F
  9.4119448109835417  2.3288523729511064 15.0000000000000000   F   F   F
  0.0000000000000000  4.6577047459022127 15.0000000000000000   F   F   F
  2.6891270888524406  4.6577047459022127 15.0000000000000000   F   F   F
  5.3782541777048811  4.6577047459022127 15.0000000000000000   F   F   F
  8.0673812665573212  4.6577047459022127 15.0000000000000000   F   F   F
  1.3445635444262203  6.9865571188533195 15.0000000000000000   F   F   F
  4.0336906332786606  6.9865571188533195 15.0000000000000000   F   F   F
  6.7228177221311016  6.9865571188533195 15.0000000000000000   F   F   F
  9.4119448109835417  6.9865571188533195 15.0000000000000000   F   F   F
  1.3445635444262203  0.7762841243170354 17.1956630737281486   F   F   F
  4.0336906332786606  0.7762841243170354 17.1956630737281486   F   F   F
  6.7228177221311016  0.7762841243170354 17.1956630737281486   F   F   F
  9.4119448109835417  0.7762841243170354 17.1956630737281486   F   F   F
  0.0000000000000000  3.1051364972681417 17.1956630737281486   F   F   F
  2.6891270888524406  3.1051364972681417 17.1956630737281486   F   F   F
  5.3782541777048811  3.1051364972681417 17.1956630737281486   F   F   F
  8.0673812665573212  3.1051364972681417 17.1956630737281486   F   F   F
  1.3445635444262203  5.4339888702192489 17.1956630737281486   F   F   F
  4.0336906332786606  5.4339888702192489 17.1956630737281486   F   F   F
  6.7228177221311016  5.4339888702192489 17.1956630737281486   F   F   F
  9.4119448109835417  5.4339888702192489 17.1956630737281486   F   F   F
  0.0000000000000000  7.7628412431703548 17.1956630737281486   F   F   F
  2.6891270888524406  7.7628412431703548 17.1956630737281486   F   F   F
  5.3782541777048811  7.7628412431703548 17.1956630737281486   F   F   F
  8.0673812665573212  7.7628412431703548 17.1956630737281486   F   F   F
  0.0020016330159176  1.5512126321480058 19.3965825126623379   T   T   T
  2.6987532732628172  1.5609029640292686 19.4391887266997720   T   T   T
  5.3700658828158678  1.5551173050442915 19.4199187142431242   T   T   T
  8.0652468828232760  1.5506745555994110 19.4005067033867533   T   T   T
  1.3443569830480420  3.8809580846036082 19.4006180365039107   T   T   T
  4.0311868217653757  3.8701373995423514 19.4294061381236389   T   T   T
  6.7224348510077343  3.8822838727799573 19.3989803617594596   T   T   T
  9.4116851616152104  3.8817067761628761 19.4013141368729869   T   T   T
 10.7560202804362177  6.2096734235466693 19.4011217726630676   T   T   T
  2.6894362218426959  6.2091338969536176 19.3966165166373976   T   T   T
  5.3761794673180860  6.2098946233308254 19.3999420096403128   T   T   T
  8.0682725091919600  6.2107442367130128 19.3993490418579739   T   T   T
  1.3437054977328744  8.5433262033654742 19.3985126742132685   T   T   T
  4.0334167041048108  8.5398034687961673 19.4000064591021015   T   T   T
  6.7239079104899107  8.5404883968880583 19.3990467846878687   T   T   T
  9.4123379872840758  8.5397925816151474 19.4017848491109994   T   T   T
 10.7557952571996633  9.3148357282744509 21.5870915589236745   T   T   T
  2.6841496014469408  9.2986686967571277 21.5755298314705009   T   T   T
  5.3851884130174659  9.3040172940159636 21.5779650529256308   T   T   T
  8.0666468131764741  9.3132398468497666 21.5890388252019640   T   T   T
  1.3282110931501419  2.3283262260249553 21.5784507769979363   T   T   T
  4.0290347823748087  2.3302461936788985 21.6834509587512656   T   T   T
  6.7376195919639335  2.3279109325358966 21.5697913899681524   T   T   T
  9.4135521183428601  2.3289972242907697 21.5870958765134802   T   T   T
  0.0008151560708893  4.6553425465267591 21.5910792142674453   T   T   T
  2.6795051696013306  4.6723018157995178 21.5754861439080408   T   T   T
  5.3853146476301328  4.6701582042629068 21.5772809722160090   T   T   T
  8.0679588309968722  4.6591882572142636 21.5880585022135527   T   T   T
  1.3391772943231670  6.9872807433987623 21.5880863568381223   T   T   T
  4.0310572920012913  6.9871592368139703 21.5868449969262493   T   T   T
  6.7266608897576807  6.9851231140467451 21.5885905712156649   T   T   T
  9.4111608652363756  6.9850688296602526 21.5891775759604414   T   T   T
  4.0943223757359544  2.3191116987894649 26.1727249197440912   T   T   T
  3.5906770926863532  2.2739388280437449 24.7671051756066767   T   T   T
  4.3681817674401282  2.3655711885183162 23.7855739114305180   T   T   T
  2.2826236554954908  2.1308215406755466 24.6616982446115394   T   T   T
  5.1772594472246123  2.4277041969665594 26.1959924369210491   T   T   T
  3.7893631342094660  1.4024540027613266 26.6898750166328611   T   T   T
  3.6151798181378623  3.1530819273976425 26.6981383948113873   T   T   T
  2.0269219116029080  2.1210594525575202 23.6682832468585076   T   T   T
