H2S_Ag110
 1.0000000000000000
    12.2699999999999996    0.0000000000000000    0.0000000000000000
     0.0000000000000000    5.7841334701059592    0.0000000000000000
     0.0000000000000000    0.0000000000000000   34.3381001025794674
 Ag  S   H  
  24   1   2
Selective dynamics
Cartesian
  2.0449999999999999  1.4460333675264898 15.0000000000000053   F   F   F
  6.1349999999999998  1.4460333675264898 15.0000000000000053   F   F   F
 10.2249999999999979  1.4460333675264898 15.0000000000000053   F   F   F
  2.0449999999999999  4.3381001025794692 15.0000000000000053   F   F   F
  6.1349999999999998  4.3381001025794692 15.0000000000000053   F   F   F
 10.2249999999999979  4.3381001025794692 15.0000000000000053   F   F   F
  0.0000000000000000  0.0000000000000000 16.4460333675264891   F   F   F
  4.0899999999999999  0.0000000000000000 16.4460333675264891   F   F   F
  8.1799999999999997  0.0000000000000000 16.4460333675264891   F   F   F
  0.0000000000000000  2.8920667350529796 16.4460333675264891   F   F   F
  4.0899999999999999  2.8920667350529796 16.4460333675264891   F   F   F
  8.1799999999999997  2.8920667350529796 16.4460333675264891   F   F   F
  2.0439639910192078  1.4508355687535812 17.9793463070193731   T   T   T
  6.1396774524431823  1.4458846622326424 17.9717788565250345   T   T   T
 10.2281507664432283  1.4447920053396801 17.9820561596904973   T   T   T
  2.0438546082175941  4.3317223851264846 17.9812099031014263   T   T   T
  6.1388373236369898  4.3413301246908294 17.9811387789406965   T   T   T
 10.2294090795916954  4.3395373323572413 17.9815741585573967   T   T   T
  0.0001754337519879  0.0000229670693232 19.3558541625937899   T   T   T
  4.0794672132794600  5.7737265165466765 19.3283553111727997   T   T   T
  8.1715334572118170  0.0006231435755624 19.3773633646426191   T   T   T
  0.0057332632429811  2.8916703745582972 19.3599714524073221   T   T   T
  4.0602854451960360  2.8943660771595843 19.3886386497744247   T   T   T
  8.1940203100686304  2.8909374946820523 19.3576470647189751   T   T   T
  5.1778037786271085  2.6517624196244327 22.0001409103609831   T   T   T
  5.7685110957549792  1.5503080333245054 21.4790413850370179   T   T   T
  6.1632371182323888  3.4135999742709666 21.4586871877455074   T   T   T
