H2S_Pt100
 1.0000000000000000
     8.3155757467537992    0.0000000000000000    0.0000000000000000
     0.0000000000000000    8.3155757467537992    0.0000000000000000
     0.0000000000000000    0.0000000000000000   35.8800000000000026
 Pt  S   H  
  36   1   2
Selective dynamics
Cartesian
  1.3859292911256331  1.3859292911256331 15.0000000000000018   F   F   F
  4.1577878733768996  1.3859292911256331 15.0000000000000018   F   F   F
  6.9296464556281654  1.3859292911256331 15.0000000000000018   F   F   F
  1.3859292911256331  4.1577878733768996 15.0000000000000018   F   F   F
  4.1577878733768996  4.1577878733768996 15.0000000000000018   F   F   F
  6.9296464556281654  4.1577878733768996 15.0000000000000018   F   F   F
  1.3859292911256331  6.9296464556281654 15.0000000000000018   F   F   F
  4.1577878733768996  6.9296464556281654 15.0000000000000018   F   F   F
  6.9296464556281654  6.9296464556281654 15.0000000000000018   F   F   F
  0.0000000000000000  0.0000000000000000 16.9600000000000009   F   F   F
  2.7718585822512662  0.0000000000000000 16.9600000000000009   F   F   F
  5.5437171645025325  0.0000000000000000 16.9600000000000009   F   F   F
  0.0000000000000000  2.7718585822512662 16.9600000000000009   F   F   F
  2.7718585822512662  2.7718585822512662 16.9600000000000009   F   F   F
  5.5437171645025325  2.7718585822512662 16.9600000000000009   F   F   F
  0.0000000000000000  5.5437171645025325 16.9600000000000009   F   F   F
  2.7718585822512662  5.5437171645025325 16.9600000000000009   F   F   F
  5.5437171645025325  5.5437171645025325 16.9600000000000009   F   F   F
  1.3928003262107684  1.4037666240533970 18.9718175488592635   T   T   T
  4.1408955766846622  1.4024940078975465 18.9658805854587413   T   T   T
  6.9214015047016630  1.3844628407953488 18.9465356988647500   T   T   T
  1.3954998406984913  4.1440899008840617 18.9720869957700380   T   T   T
  4.1420246460240548  4.1517783567331907 18.9634768490955175   T   T   T
  6.9235431180295306  4.1565133268692032 18.9461540551379422   T   T   T
  1.3875935533136068  6.9336952417573618 18.9483567930621959   T   T   T
  4.1591846574110596  6.9352753633830151 18.9473154063462168   T   T   T
  6.9315702472295939  6.9303376934038443 18.9475161717551721   T   T   T
  0.0015869542966768  0.0061683023190807 20.9343985063795479   T   T   T
  2.7726340449111055  0.0048044051778057 20.9437057981686969   T   T   T
  5.5336381958239880  0.0075432141802193 20.9368180076839074   T   T   T
  8.2522523802397405  2.7710500762747463 20.9521972503518619   T   T   T
  2.6793228928206339  2.7888683419025408 21.0949149592930922   T   T   T
  5.5289153371503037  2.7763835123299061 20.9408485162807239   T   T   T
  0.0022814041301109  5.5368111131219138 20.9309460078131551   T   T   T
  2.7726098284622758  5.5747437897387950 20.9382081372039970   T   T   T
  5.5359998977035554  5.5434185360663912 20.9313835911563189   T   T   T
  3.1153987633137743  2.8322475350366494 23.3204475529867317   T   T   T
  3.3348805615291757  1.5145535413902000 23.5893379577323401   T   T   T
  4.4740053590105919  3.0766654763505539 23.2326446037347623   T   T   T
