H2CO_Pd110
 1.0000000000000000
    11.6699999999999999    0.0000000000000000    0.0000000000000000
     0.0000000000000000    5.5012907576313399    0.0000000000000000
     0.0000000000000000    0.0000000000000000   34.1259680682235071
 Pd  C   O   H  
  24   1   1   2
Selective dynamics
Cartesian
  1.9449999999999998  1.3753226894078348 14.9999999999999929   F   F   F
  5.8349999999999991  1.3753226894078348 14.9999999999999929   F   F   F
  9.7249999999999996  1.3753226894078348 14.9999999999999929   F   F   F
  1.9449999999999998  4.1259680682235054 14.9999999999999929   F   F   F
  5.8349999999999991  4.1259680682235054 14.9999999999999929   F   F   F
  9.7249999999999996  4.1259680682235054 14.9999999999999929   F   F   F
  0.0000000000000000  0.0000000000000000 16.3753226894078345   F   F   F
  3.8899999999999997  0.0000000000000000 16.3753226894078345   F   F   F
  7.7799999999999994  0.0000000000000000 16.3753226894078345   F   F   F
  0.0000000000000000  2.7506453788156695 16.3753226894078345   F   F   F
  3.8899999999999997  2.7506453788156695 16.3753226894078345   F   F   F
  7.7799999999999994  2.7506453788156695 16.3753226894078345   F   F   F
  1.9541924673791282  1.3813625556708191 17.8267468036080423   T   T   T
  5.8359697587284840  1.3574098070921321 17.7658381726550694   T   T   T
  9.6939327397726132  1.3729185704277531 17.8327797222604971   T   T   T
  1.9616277512927636  4.1049452472916883 17.8345934611290851   T   T   T
  5.8349445896177583  4.1182015702247217 17.7643161338480979   T   T   T
  9.7004582993202177  4.1118372689174354 17.8266913992914517   T   T   T
 11.6606730502791969  5.4918560319856633 19.1584400616243222   T   T   T
  3.8924252341291230  5.4949264158902782 19.1364715412952968   T   T   T
  7.7670810732983222  5.4897624052489764 19.1598828081892236   T   T   T
 11.6544183623220245  2.7415803152604301 19.1591189450299133   T   T   T
  3.9279334976773890  2.7476601928119000 19.2241508678430471   T   T   T
  7.6782090653208881  2.7156767477806003 19.2364290207323236   T   T   T
  6.4080945449674305  2.8612512588687862 20.9041224974157771   T   T   T
  5.1514877833974495  2.5873070096784097 20.8786871948251402   T   T   T
  6.7325639630340035  3.9591545918038551 20.7861754744707454   T   T   T
  7.0292271501739174  2.2737483753000545 21.6155390723948457   T   T   T
