CH3CH2OH_Pt110
 1.0000000000000000
    15.6799999999999997    0.0000000000000000    0.0000000000000000
     0.0000000000000000   11.0874343290050650    0.0000000000000000
     0.0000000000000000    0.0000000000000000   34.1577878733768969
 Pt  C   O   H  
  64   2   1   6
Selective dynamics
Cartesian
  1.9600000000000000  1.3859292911256331 14.9999999999999982   F   F   F
  5.8799999999999999  1.3859292911256331 14.9999999999999982   F   F   F
  9.8000000000000007  1.3859292911256331 14.9999999999999982   F   F   F
 13.7199999999999989  1.3859292911256331 14.9999999999999982   F   F   F
  1.9600000000000000  4.1577878733768996 14.9999999999999982   F   F   F
  5.8799999999999999  4.1577878733768996 14.9999999999999982   F   F   F
  9.8000000000000007  4.1577878733768996 14.9999999999999982   F   F   F
 13.7199999999999989  4.1577878733768996 14.9999999999999982   F   F   F
  1.9600000000000000  6.9296464556281654 14.9999999999999982   F   F   F
  5.8799999999999999  6.9296464556281654 14.9999999999999982   F   F   F
  9.8000000000000007  6.9296464556281654 14.9999999999999982   F   F   F
 13.7199999999999989  6.9296464556281654 14.9999999999999982   F   F   F
  1.9600000000000000  9.7015050378794339 14.9999999999999982   F   F   F
  5.8799999999999999  9.7015050378794339 14.9999999999999982   F   F   F
  9.8000000000000007  9.7015050378794339 14.9999999999999982   F   F   F
 13.7199999999999989  9.7015050378794339 14.9999999999999982   F   F   F
  0.0000000000000000  0.0000000000000000 16.3859292911256311   F   F   F
  3.9199999999999999  0.0000000000000000 16.3859292911256311   F   F   F
  7.8399999999999999  0.0000000000000000 16.3859292911256311   F   F   F
 11.7599999999999998  0.0000000000000000 16.3859292911256311   F   F   F
  0.0000000000000000  2.7718585822512662 16.3859292911256311   F   F   F
  3.9199999999999999  2.7718585822512662 16.3859292911256311   F   F   F
  7.8399999999999999  2.7718585822512662 16.3859292911256311   F   F   F
 11.7599999999999998  2.7718585822512662 16.3859292911256311   F   F   F
  0.0000000000000000  5.5437171645025325 16.3859292911256311   F   F   F
  3.9199999999999999  5.5437171645025325 16.3859292911256311   F   F   F
  7.8399999999999999  5.5437171645025325 16.3859292911256311   F   F   F
 11.7599999999999998  5.5437171645025325 16.3859292911256311   F   F   F
  0.0000000000000000  8.3155757467537992 16.3859292911256311   F   F   F
  3.9199999999999999  8.3155757467537992 16.3859292911256311   F   F   F
  7.8399999999999999  8.3155757467537992 16.3859292911256311   F   F   F
 11.7599999999999998  8.3155757467537992 16.3859292911256311   F   F   F
  1.9538529740439767  1.3824963116072821 17.8962943456149084   T   T   T
  5.8861969584091840  1.3840670591338862 17.9033230083017223   T   T   T
  9.7952583950676591  1.3840320006910203 17.9070681240447662   T   T   T
 13.7214984148261721  1.3841011654428410 17.9005027709550077   T   T   T
  1.9479252324836669  4.1503849450178043 17.8886518341812106   T   T   T
  5.8894748097530307  4.1609996202810029 17.9074789293283914   T   T   T
  9.8001364885771167  4.1576947369523598 17.9023846923165308   T   T   T
 13.7218728653566231  4.1600742405448985 17.9029080984976225   T   T   T
  1.9687229473972954  6.9324333543068537 17.8879064913135117   T   T   T
  5.8678921312582339  6.9256007421371759 17.8918649114215249   T   T   T
  9.8037614531618225  6.9320946197176374 17.8993637394060414   T   T   T
 13.7219677330779941  6.9318906889544545 17.9053139796897653   T   T   T
  1.9751454119364156  9.6924872467318544 17.8977390179600704   T   T   T
  5.8700450750898945  9.6908698062899816 17.8904709050059658   T   T   T
  9.8031219993495036  9.7043612723564010 17.8988234995888682   T   T   T
 13.7223491608949217  9.6993318584561781 17.9044344632932209   T   T   T
  0.0063970993406163 11.0817222542721421 19.1880936640270470   T   T   T
  3.9158907835299059  0.0135153192987743 19.1786497719404245   T   T   T
  7.8308757236108137 11.0710432173084818 19.1883581801560190   T   T   T
 11.7612688580199514  0.0015238548615168 19.1895927321619659   T   T   T
 15.6773062436849724  2.7694199634623433 19.1910917497022275   T   T   T
  3.9186534919721501  2.7683618341238216 19.1753111793288440   T   T   T
  7.8439853174919936  2.7761564991882830 19.1939452220236433   T   T   T
 11.7609714620702643  2.7709313604856409 19.1881314309805440   T   T   T
  0.0089734571512503  5.5478759786078005 19.1887066146709202   T   T   T
  3.8920308955643819  5.5125933958716749 19.1637803908533328   T   T   T
  7.8421825617210414  5.5576582498342075 19.1844346158462358   T   T   T
 11.7597702482842390  5.5436020387448863 19.1894899460525430   T   T   T
  0.0159093520999314  8.3151943676235671 19.1902931350379049   T   T   T
  3.8473280364187512  8.2904360715193643 19.2647643770879036   T   T   T
  7.8409073762437362  8.3121683497313033 19.1804877771124218   T   T   T
 11.7591638821539650  8.3176720950415550 19.1888139822181643   T   T   T
  5.3502721625010690  6.0355173374946922 22.1236278027814066   T   T   T
  4.7506445016941790  7.4175107033036394 22.2530746190495492   T   T   T
  5.0415195325187154  8.3086108914549257 21.1243653402722487   T   T   T
  6.4431671677095936  6.0781564674871555 21.9981403125424642   T   T   T
  5.1322128897743848  5.4312413124624053 23.0166669199644893   T   T   T
  4.9433995748287138  5.4829086151805484 21.2476672854103370   T   T   T
  5.1283990250051499  7.9267148340966180 23.1550161053224812   T   T   T
  3.6533251926364256  7.3983769455829815 22.3279528567705121   T   T   T
  5.9856615410571372  8.1861763138656265 20.8384996070822694   T   T   T
