CH4_Pt110
 1.0000000000000000
    11.7599999999999998    0.0000000000000000    0.0000000000000000
     0.0000000000000000    5.5437171645025325    0.0000000000000000
     0.0000000000000000    0.0000000000000000   34.1577878733768969
 Pt  C   H  
  24   1   4
Selective dynamics
Cartesian
  1.9600000000000000  1.3859292911256331 14.9999999999999982   F   F   F
  5.8799999999999999  1.3859292911256331 14.9999999999999982   F   F   F
  9.8000000000000007  1.3859292911256331 14.9999999999999982   F   F   F
  1.9600000000000000  4.1577878733768996 14.9999999999999982   F   F   F
  5.8799999999999999  4.1577878733768996 14.9999999999999982   F   F   F
  9.8000000000000007  4.1577878733768996 14.9999999999999982   F   F   F
  0.0000000000000000  0.0000000000000000 16.3859292911256311   F   F   F
  3.9199999999999999  0.0000000000000000 16.3859292911256311   F   F   F
  7.8399999999999999  0.0000000000000000 16.3859292911256311   F   F   F
  0.0000000000000000  2.7718585822512662 16.3859292911256311   F   F   F
  3.9199999999999999  2.7718585822512662 16.3859292911256311   F   F   F
  7.8399999999999999  2.7718585822512662 16.3859292911256311   F   F   F
  1.9588108344267552  1.3874159611744932 17.8994691850210188   T   T   T
  5.8816742131783215  1.3838918307718155 17.9026391041757904   T   T   T
  9.8001650416297519  1.3848992134573748 17.9025976419421724   T   T   T
  1.9596594582386919  4.1568151575721730 17.9000319523804485   T   T   T
  5.8820176890147611  4.1577776582176327 17.9007069127622174   T   T   T
  9.8015960774114745  4.1585353843292978 17.9022495649678852   T   T   T
  0.0017784838547696  0.0007159979141620 19.1927410165988555   T   T   T
  3.9166180649720057  5.5430880740849950 19.1785160860558008   T   T   T
  7.8384399898075801  5.5421792540560100 19.1919255913097224   T   T   T
  0.0042877510374827  2.7718666310240505 19.1913316720984426   T   T   T
  3.9120743781104319  2.7717663896516789 19.1911157930301890   T   T   T
  7.8434892795378088  2.7725248839729235 19.1842908776396044   T   T   T
  4.9879834026564263  2.9537804714342895 22.0401456759671248   T   T   T
  4.0255114652453683  2.5040346351180278 21.7560417723338340   T   T   T
  5.8091326161278358  2.4820092387775743 21.4887711541323156   T   T   T
  5.1404460943123809  2.7904984282257890 23.1124715009860857   T   T   T
  4.9822039747473550  4.0278044358301281 21.8324155681316192   T   T   T
