C2H6_Ir100
 1.0000000000000000
     8.1458701192690270    0.0000000000000000    0.0000000000000000
     0.0000000000000000    8.1458701192690270    0.0000000000000000
     0.0000000000000000    0.0000000000000000   35.7599999999999980
 Ir  C   H  
  36   2   6
Selective dynamics
Cartesian
  1.3576450198781711  1.3576450198781711 15.0000000000000018   F   F   F
  4.0729350596345135  1.3576450198781711 15.0000000000000018   F   F   F
  6.7882250993908553  1.3576450198781711 15.0000000000000018   F   F   F
  1.3576450198781711  4.0729350596345135 15.0000000000000018   F   F   F
  4.0729350596345135  4.0729350596345135 15.0000000000000018   F   F   F
  6.7882250993908553  4.0729350596345135 15.0000000000000018   F   F   F
  1.3576450198781711  6.7882250993908553 15.0000000000000018   F   F   F
  4.0729350596345135  6.7882250993908553 15.0000000000000018   F   F   F
  6.7882250993908553  6.7882250993908553 15.0000000000000018   F   F   F
  0.0000000000000000  0.0000000000000000 16.9200000000000017   F   F   F
  2.7152900397563422  0.0000000000000000 16.9200000000000017   F   F   F
  5.4305800795126844  0.0000000000000000 16.9200000000000017   F   F   F
  0.0000000000000000  2.7152900397563422 16.9200000000000017   F   F   F
  2.7152900397563422  2.7152900397563422 16.9200000000000017   F   F   F
  5.4305800795126844  2.7152900397563422 16.9200000000000017   F   F   F
  0.0000000000000000  5.4305800795126844 16.9200000000000017   F   F   F
  2.7152900397563422  5.4305800795126844 16.9200000000000017   F   F   F
  5.4305800795126844  5.4305800795126844 16.9200000000000017   F   F   F
  1.3595301345978612  1.3591951477468656 18.8886632334761764   T   T   T
  4.0733684081080206  1.3583318537913214 18.8873641161152612   T   T   T
  6.7891243376568253  1.3518529859169646 18.8829373288463849   T   T   T
  1.3602574510926386  4.0708949803956935 18.8889105756054185   T   T   T
  4.0685618244449211  4.0727932533923736 18.8915796988536577   T   T   T
  6.7882402670084492  4.0750771379599957 18.8801190023236209   T   T   T
  1.3544103605600435  6.7902710472134924 18.8825507134059514   T   T   T
  4.0760054121313392  6.7877281621594712 18.8842771458303922   T   T   T
  6.7892195824242307  6.7910867181725676 18.8844949548646781   T   T   T
  0.0061161406032515  0.0003308075816816 20.7468119455035982   T   T   T
  2.7161718648830253  8.1427612653430597 20.7436342407877845   T   T   T
  5.4240579702456326  0.0005773531762320 20.7451509164589751   T   T   T
  8.1419399131384846  2.7190885517688810 20.7418654543333147   T   T   T
  2.7165912075730354  2.7140225268950782 20.7555130868427007   T   T   T
  5.4352181661317776  2.7191605986457104 20.7399253681801881   T   T   T
  0.0026343324468498  5.4261615552692906 20.7454972773831159   T   T   T
  2.7120738381383274  5.4385443746789033 20.7392470434647578   T   T   T
  5.4299234002686978  5.4271928576792074 20.7432453837118800   T   T   T
  2.8095257156737539  3.1732780474062561 23.9488403358206376   T   T   T
  2.9854252574104247  4.6681663001793039 24.1637766454329679   T   T   T
  3.7146442220109739  2.7092054348519636 23.5250643608795400   T   T   T
  2.5889832478092547  2.6472345602931537 24.8912735861421730   T   T   T
  1.9589645048114304  2.9544181338695585 23.2772767124441415   T   T   T
  2.0391528056107697  5.1603450074460540 24.4247483658772460   T   T   T
  3.3690948784967181  5.1697000341227097 23.2563342471889456   T   T   T
  3.7157252324514505  4.8739767587766361 24.9588366683718590   T   T   T
