C2H4_Cu111
 1.0000000000000000
    10.2106219203337467    0.0000000000000000    0.0000000000000000
     0.0000000000000000    8.8426579714472719    0.0000000000000000
     0.0000000000000000    0.0000000000000000   36.2527034153236514
 Cu  C   H  
  64   2   4
Selective dynamics
Cartesian
  0.0000000000000000  0.0000000000000000 15.0000000000000000   F   F   F
  2.5526554800834367  0.0000000000000000 15.0000000000000000   F   F   F
  5.1053109601668734  0.0000000000000000 15.0000000000000000   F   F   F
  7.6579664402503100  0.0000000000000000 15.0000000000000000   F   F   F
  1.2763277400417183  2.2106644928618180 15.0000000000000000   F   F   F
  3.8289832201251550  2.2106644928618180 15.0000000000000000   F   F   F
  6.3816387002085921  2.2106644928618180 15.0000000000000000   F   F   F
  8.9342941802920279  2.2106644928618180 15.0000000000000000   F   F   F
  0.0000000000000000  4.4213289857236360 15.0000000000000000   F   F   F
  2.5526554800834367  4.4213289857236360 15.0000000000000000   F   F   F
  5.1053109601668734  4.4213289857236360 15.0000000000000000   F   F   F
  7.6579664402503100  4.4213289857236360 15.0000000000000000   F   F   F
  1.2763277400417183  6.6319934785854526 15.0000000000000000   F   F   F
  3.8289832201251550  6.6319934785854526 15.0000000000000000   F   F   F
  6.3816387002085921  6.6319934785854526 15.0000000000000000   F   F   F
  8.9342941802920279  6.6319934785854526 15.0000000000000000   F   F   F
  1.2763277400417183  0.7368881642872727 17.0842344717745505   F   F   F
  3.8289832201251550  0.7368881642872727 17.0842344717745505   F   F   F
  6.3816387002085921  0.7368881642872727 17.0842344717745505   F   F   F
  8.9342941802920279  0.7368881642872727 17.0842344717745505   F   F   F
  0.0000000000000000  2.9475526571490906 17.0842344717745505   F   F   F
  2.5526554800834367  2.9475526571490906 17.0842344717745505   F   F   F
  5.1053109601668734  2.9475526571490906 17.0842344717745505   F   F   F
  7.6579664402503100  2.9475526571490906 17.0842344717745505   F   F   F
  1.2763277400417183  5.1582171500109091 17.0842344717745505   F   F   F
  3.8289832201251550  5.1582171500109091 17.0842344717745505   F   F   F
  6.3816387002085921  5.1582171500109091 17.0842344717745505   F   F   F
  8.9342941802920279  5.1582171500109091 17.0842344717745505   F   F   F
  0.0000000000000000  7.3688816428727266 17.0842344717745505   F   F   F
  2.5526554800834367  7.3688816428727266 17.0842344717745505   F   F   F
  5.1053109601668734  7.3688816428727266 17.0842344717745505   F   F   F
  7.6579664402503100  7.3688816428727266 17.0842344717745505   F   F   F
 10.2102212042428828  1.4735327901737245 19.1648352918454492   T   T   T
  2.5524254091523031  1.4735896382618443 19.1649848403620844   T   T   T
  5.1056709873836441  1.4734556523038969 19.1646894223521365   T   T   T
  7.6581026300768462  1.4736180812162374 19.1649896385050909   T   T   T
  1.2763442750898504  3.6843442480337281 19.1656943506338244   T   T   T
  3.8285025293881754  3.6844585496371764 19.1669623811298209   T   T   T
  6.3820348162332294  3.6845056166829049 19.1650595931707137   T   T   T
  8.9341349175949372  3.6844160234867167 19.1649399865018921   T   T   T
 10.2099706186583266  5.8955144487758249 19.1646576362630654   T   T   T
  2.5524994906977581  5.8951527810701405 19.1651467700124307   T   T   T
  5.1057616839592415  5.8954564718632962 19.1651302766292986   T   T   T
  7.6582591702101146  5.8951140185983482 19.1649804058385058   T   T   T
  1.2761618670093233  8.1057006577911608 19.1648205721905747   T   T   T
  3.8290255548469441  8.1056300373341159 19.1645478976558863   T   T   T
  6.3816503140590761  8.1059045173298916 19.1651189052406359   T   T   T
  8.9343889546708564  8.1057377461230509 19.1651456335080468   T   T   T
  0.0003452262267808  0.0003802548218575 21.2560369695341755   T   T   T
  2.5525274513217306  0.0003000818824278 21.2557544915185765   T   T   T
  5.1051847332055855  0.0002219974819233 21.2567894844980856   T   T   T
  7.6579768161371975  0.0000210990049725 21.2552438480273729   T   T   T
  1.2755283487638953  2.2096709067771521 21.2537843764611871   T   T   T
  3.8297261642448279  2.2094117819359651 21.2531718602336497   T   T   T
  6.3815878315099805  2.2107805526662685 21.2549269314324647   T   T   T
  8.9340816254514355  2.2107549172938019 21.2558998881776162   T   T   T
 10.2100264844271535  4.4212915584415766 21.2552981089794919   T   T   T
  2.5529069622864733  4.4208936136146244 21.2583304088549276   T   T   T
  5.1068701916868804  4.4215596003567175 21.2538048818464205   T   T   T
  7.6581082321591145  4.4210276928696794 21.2562130683814843   T   T   T
  1.2765012216157374  6.6322534571803677 21.2560529172543582   T   T   T
  3.8293606961919426  6.6329786098752761 21.2549467465079580   T   T   T
  6.3814858014604434  6.6322538546840386 21.2556417052089479   T   T   T
  8.9344533859425965  6.6321136700771639 21.2555981415206077   T   T   T
  3.7695002737430876  3.9213832522252012 24.9066958976106321   T   T   T
  2.5857232274362074  3.3010938748011847 24.9232003347452959   T   T   T
  4.6897985637896591  3.3776665174412219 24.6938422998646949   T   T   T
  3.8538884474195600  4.9848607860736038 25.1293109794488956   T   T   T
  2.5046395276133575  2.2326858465856412 24.7243986746577349   T   T   T
  1.6685111917996414  3.8396368099424447 25.1601090279194395   T   T   T
