CH3OH_Ir100
 1.0000000000000000
     8.1458701192690270    0.0000000000000000    0.0000000000000000
     0.0000000000000000    8.1458701192690270    0.0000000000000000
     0.0000000000000000    0.0000000000000000   35.7599999999999980
 Ir  C   O   H  
  36   1   1   4
Selective dynamics
Cartesian
  1.3576450198781711  1.3576450198781711 15.0000000000000018   F   F   F
  4.0729350596345135  1.3576450198781711 15.0000000000000018   F   F   F
  6.7882250993908553  1.3576450198781711 15.0000000000000018   F   F   F
  1.3576450198781711  4.0729350596345135 15.0000000000000018   F   F   F
  4.0729350596345135  4.0729350596345135 15.0000000000000018   F   F   F
  6.7882250993908553  4.0729350596345135 15.0000000000000018   F   F   F
  1.3576450198781711  6.7882250993908553 15.0000000000000018   F   F   F
  4.0729350596345135  6.7882250993908553 15.0000000000000018   F   F   F
  6.7882250993908553  6.7882250993908553 15.0000000000000018   F   F   F
  0.0000000000000000  0.0000000000000000 16.9200000000000017   F   F   F
  2.7152900397563422  0.0000000000000000 16.9200000000000017   F   F   F
  5.4305800795126844  0.0000000000000000 16.9200000000000017   F   F   F
  0.0000000000000000  2.7152900397563422 16.9200000000000017   F   F   F
  2.7152900397563422  2.7152900397563422 16.9200000000000017   F   F   F
  5.4305800795126844  2.7152900397563422 16.9200000000000017   F   F   F
  0.0000000000000000  5.4305800795126844 16.9200000000000017   F   F   F
  2.7152900397563422  5.4305800795126844 16.9200000000000017   F   F   F
  5.4305800795126844  5.4305800795126844 16.9200000000000017   F   F   F
  1.3558584296341292  1.3580042772408345 18.8817503469649814   T   T   T
  4.0662880085729176  1.3606104140956510 18.8751077323727614   T   T   T
  6.7965783445551837  1.3579133025996757 18.8746659449970160   T   T   T
  1.3605640091644002  4.0670890651850868 18.8778395071964020   T   T   T
  4.0860194221442576  4.0880797896866801 18.9009995702064018   T   T   T
  6.7805104553971267  4.0829882942833802 18.8976806109573268   T   T   T
  1.3586215956356729  6.7945347996414958 18.8750073958458664   T   T   T
  4.0881326697097915  6.7773070617480249 18.9025424259859811   T   T   T
  6.7747696836648474  6.7751600863961325 18.9018020260871857   T   T   T
  8.1447493660916166  8.1430616919195398 20.7463139078836249   T   T   T
  2.7198246063767511  0.0033557152994514 20.7418603585305945   T   T   T
  5.4327679473612625  0.0242770840618630 20.7380664924607281   T   T   T
  8.1423135717015764  2.7229266157599370 20.7464343807878713   T   T   T
  2.7221317798287585  2.7186032382049272 20.7476293400702652   T   T   T
  5.4320459349873023  2.6977549315991225 20.7285088585374417   T   T   T
  0.0227583414157070  5.4323006974974755 20.7326197523486684   T   T   T
  2.6982303761774999  5.4344920128099350 20.7305253404109244   T   T   T
  5.4279503026983376  5.4576962194756256 20.8159626161016611   T   T   T
  4.5690664056182628  5.9132470023561536 23.7842493240000508   T   T   T
  5.5024975023563609  5.1602773259134231 22.9731470733775005   T   T   T
  4.7269377898299663  5.6654713925486826 24.8419219699387170   T   T   T
  5.3170227703574842  4.1886372590721903 23.0189654575508769   T   T   T
  4.7775516892943610  6.9735740632564278 23.6091391454841109   T   T   T
  3.5347728401592988  5.6901865434460879 23.4799155593937030   T   T   T
