CH3OH_Pt110
 1.0000000000000000
    11.7599999999999998    0.0000000000000000    0.0000000000000000
     0.0000000000000000    5.5437171645025325    0.0000000000000000
     0.0000000000000000    0.0000000000000000   34.1577878733768969
 Pt  C   O   H  
  24   1   1   4
Selective dynamics
Cartesian
  1.9600000000000000  1.3859292911256331 14.9999999999999982   F   F   F
  5.8799999999999999  1.3859292911256331 14.9999999999999982   F   F   F
  9.8000000000000007  1.3859292911256331 14.9999999999999982   F   F   F
  1.9600000000000000  4.1577878733768996 14.9999999999999982   F   F   F
  5.8799999999999999  4.1577878733768996 14.9999999999999982   F   F   F
  9.8000000000000007  4.1577878733768996 14.9999999999999982   F   F   F
  0.0000000000000000  0.0000000000000000 16.3859292911256311   F   F   F
  3.9199999999999999  0.0000000000000000 16.3859292911256311   F   F   F
  7.8399999999999999  0.0000000000000000 16.3859292911256311   F   F   F
  0.0000000000000000  2.7718585822512662 16.3859292911256311   F   F   F
  3.9199999999999999  2.7718585822512662 16.3859292911256311   F   F   F
  7.8399999999999999  2.7718585822512662 16.3859292911256311   F   F   F
  1.9550456428652774  1.3687306197188076 17.8833044253636935   T   T   T
  5.8874935352440767  1.3683122704527853 17.8766486641650069   T   T   T
  9.7933392817205345  1.3645032970363233 17.9069012497974569   T   T   T
  1.9599741638680697  4.1437412055063012 17.8863188383632163   T   T   T
  5.8782842220981326  4.1289788120506774 17.8847075470578076   T   T   T
  9.7943277056620115  4.1419098471411981 17.9081228748272814   T   T   T
  0.0116124546787138  5.5264304316343704 19.1866478027482472   T   T   T
  3.9387555691254130  5.5194173669300524 19.1422474177051534   T   T   T
  7.8241927119742041  5.5150835548339723 19.1955634824817025   T   T   T
 11.7530613295228559  2.7541937813475572 19.1855411366015254   T   T   T
  3.9830164069291487  2.7400077076622122 19.2173448957292443   T   T   T
  7.8292083670114643  2.7430840448324227 19.1959282473977417   T   T   T
  3.1543936168090272  3.6831789330927944 22.0674558402863070   T   T   T
  2.7978873077145265  2.6764253278489973 21.0942346381985750   T   T   T
  2.5586898995899512  3.5431750546492049 22.9779138533264060   T   T   T
  1.8645861447906240  2.8261505428192462 20.7703731443985973   T   T   T
  4.2167402552352602  3.5582153808871078 22.2963427148016500   T   T   T
  2.9793804976709151  4.6934696391775548 21.6667663273782907   T   T   T
