HCOOH_Rh100
 1.0000000000000000
     8.0673812665573212    0.0000000000000000    0.0000000000000000
     0.0000000000000000    8.0673812665573212    0.0000000000000000
     0.0000000000000000    0.0000000000000000   35.7044999999999959
 Rh  O   C   H  
  36   2   1   2
Selective dynamics
Cartesian
  1.3445635444262201  1.3445635444262201 14.9999999999999964   F   F   F
  4.0336906332786597  1.3445635444262201 14.9999999999999964   F   F   F
  6.7228177221311043  1.3445635444262201 14.9999999999999964   F   F   F
  1.3445635444262201  4.0336906332786597 14.9999999999999964   F   F   F
  4.0336906332786597  4.0336906332786597 14.9999999999999964   F   F   F
  6.7228177221311043  4.0336906332786597 14.9999999999999964   F   F   F
  1.3445635444262201  6.7228177221311043 14.9999999999999964   F   F   F
  4.0336906332786597  6.7228177221311043 14.9999999999999964   F   F   F
  6.7228177221311043  6.7228177221311043 14.9999999999999964   F   F   F
  0.0000000000000000  0.0000000000000000 16.9014999999999986   F   F   F
  2.6891270888524401  0.0000000000000000 16.9014999999999986   F   F   F
  5.3782541777048802  0.0000000000000000 16.9014999999999986   F   F   F
  0.0000000000000000  2.6891270888524401 16.9014999999999986   F   F   F
  2.6891270888524401  2.6891270888524401 16.9014999999999986   F   F   F
  5.3782541777048802  2.6891270888524401 16.9014999999999986   F   F   F
  0.0000000000000000  5.3782541777048802 16.9014999999999986   F   F   F
  2.6891270888524401  5.3782541777048802 16.9014999999999986   F   F   F
  5.3782541777048802  5.3782541777048802 16.9014999999999986   F   F   F
  1.3430063920224249  1.3442617961991907 18.8374534579825834   T   T   T
  4.0340510766647517  1.3440197718346940 18.8370961217431478   T   T   T
  6.7196538875046041  1.3433674812195060 18.8409593318805157   T   T   T
  1.3334164744225594  4.0452115404702642 18.8526632773473324   T   T   T
  4.0335917168721354  4.0297304874029933 18.8359746049457470   T   T   T
  6.7283199311541573  4.0403451086301914 18.8496521772772638   T   T   T
  1.3327119686370250  6.7095454349125614 18.8495700534658468   T   T   T
  4.0342957978040355  6.7232151285145285 18.8355939292428438   T   T   T
  6.7285248460129043  6.7128534704464462 18.8495529645304636   T   T   T
  0.0002860173497336  0.0101995792633526 20.6804402468438511   T   T   T
  2.6843596425313585  8.0664404480138607 20.6819994448800415   T   T   T
  5.3780669191048354  8.0579487530111695 20.6919860067122769   T   T   T
  8.0670114825916706  2.6735921562096294 20.6831290762473614   T   T   T
  2.6840523671927672  2.6886107233487722 20.6872522306967603   T   T   T
  5.3763518619544293  2.6945556839668283 20.6917267542120875   T   T   T
  0.0117038313077852  5.3752816079010932 20.7840494776354383   T   T   T
  2.6871999870477530  5.3824170303650662 20.6839876890246117   T   T   T
  5.3548286220499985  5.3763060800928164 20.6761776099489296   T   T   T
  1.8568014974913951  5.6005996043199504 23.6021060050856413   T   T   T
  7.7813469173975891  5.3760598524984280 22.8556174316398355   T   T   T
  0.5748137673686378  5.4981676268529736 23.7574576840502516   T   T   T
  2.0900388175152482  5.5477147059431964 22.5453830276915284   T   T   T
  0.2342482857921360  5.5304082038513069 24.8006267596592913   T   T   T
