H2CO_Ag100
 1.0000000000000000
     8.6762002051589384    0.0000000000000000    0.0000000000000000
     0.0000000000000000    8.6762002051589384    0.0000000000000000
     0.0000000000000000    0.0000000000000000   36.1349999999999980
 Ag  C   O   H  
  36   1   1   2
Selective dynamics
Cartesian
  1.4460333675264894  1.4460333675264894 15.0000000000000000   F   F   F
  4.3381001025794692  1.4460333675264894 15.0000000000000000   F   F   F
  7.2301668376324475  1.4460333675264894 15.0000000000000000   F   F   F
  1.4460333675264894  4.3381001025794692 15.0000000000000000   F   F   F
  4.3381001025794692  4.3381001025794692 15.0000000000000000   F   F   F
  7.2301668376324475  4.3381001025794692 15.0000000000000000   F   F   F
  1.4460333675264894  7.2301668376324475 15.0000000000000000   F   F   F
  4.3381001025794692  7.2301668376324475 15.0000000000000000   F   F   F
  7.2301668376324475  7.2301668376324475 15.0000000000000000   F   F   F
  0.0000000000000000  0.0000000000000000 17.0450000000000017   F   F   F
  2.8920667350529787  0.0000000000000000 17.0450000000000017   F   F   F
  5.7841334701059575  0.0000000000000000 17.0450000000000017   F   F   F
  0.0000000000000000  2.8920667350529787 17.0450000000000017   F   F   F
  2.8920667350529787  2.8920667350529787 17.0450000000000017   F   F   F
  5.7841334701059575  2.8920667350529787 17.0450000000000017   F   F   F
  0.0000000000000000  5.7841334701059575 17.0450000000000017   F   F   F
  2.8920667350529787  5.7841334701059575 17.0450000000000017   F   F   F
  5.7841334701059575  5.7841334701059575 17.0450000000000017   F   F   F
  1.4465783432207513  1.4421635124396350 19.1590739096091340   T   T   T
  4.3434677071726462  1.4520584462641961 19.1775238670160135   T   T   T
  7.2229335434245288  1.4518353931841992 19.1767127540497810   T   T   T
  1.4465724647803817  4.3420097957816468 19.1589849659350406   T   T   T
  4.3434204037262667  4.3320631002356640 19.1774654820952790   T   T   T
  7.2228750104680577  4.3322386156282935 19.1765252037765563   T   T   T
  1.4452660376099149  7.2301927082162898 19.1675541062712753   T   T   T
  4.3341851969219389  7.2301803571065237 19.1599816901846367   T   T   T
  7.2346662673128641  7.2302282901859067 19.1577138094491701   T   T   T
  8.6730620530631111  0.0035366578817019 21.2498759781272852   T   T   T
  2.8935753810578433  0.0015640427969437 21.2483372972038147   T   T   T
  5.7848458491557988  8.6629573354970351 21.2357480777830325   T   T   T
  0.0076084809747152  2.8921013428161411 21.2373598823262419   T   T   T
  2.8706306832566910  2.8922039755632012 21.2368845980062346   T   T   T
  5.7955377947060818  2.8927391821302333 21.2791025134712903   T   T   T
  8.6732193826591981  5.7809472993751312 21.2494751685027516   T   T   T
  2.8936532359387939  5.7823820441416460 21.2483598210658542   T   T   T
  5.7848016572804761  5.7975076734923681 21.2355230866099838   T   T   T
  6.2066622180047659  2.9138986468150376 24.8294064058974371   T   T   T
  5.3713235893292870  2.8797531420490459 23.9357400808291061   T   T   T
  5.8705260583908121  2.8948409787733396 25.8827960879034187   T   T   T
  7.2887245567979386  2.9632228066269382 24.5861277113895440   T   T   T
