CH3CHO_Pd111
 1.0000000000000000
     8.2519361364470107    0.0000000000000000    0.0000000000000000
     4.1259680682235054    7.1463863245699208    0.0000000000000000
     0.0000000000000000    0.0000000000000000   36.7376776414429358
 Pd  C   O   H  
  36   2   1   4
Selective dynamics
Cartesian
  0.0000000000000000  0.0000000000000000 15.0000000000000000   F   F   F
  2.7506453788156700  0.0000000000000000 15.0000000000000000   F   F   F
  5.5012907576313399  0.0000000000000000 15.0000000000000000   F   F   F
  1.3753226894078350  2.3821287748566400 15.0000000000000000   F   F   F
  4.1259680682235054  2.3821287748566400 15.0000000000000000   F   F   F
  6.8766134470391753  2.3821287748566400 15.0000000000000000   F   F   F
  2.7506453788156700  4.7642575497132800 15.0000000000000000   F   F   F
  5.5012907576313399  4.7642575497132800 15.0000000000000000   F   F   F
  8.2519361364470107  4.7642575497132800 15.0000000000000000   F   F   F
  1.3753226894078350  0.7940429249522137 17.2458925471476441   F   F   F
  4.1259680682235045  0.7940429249522137 17.2458925471476441   F   F   F
  6.8766134470391744  0.7940429249522137 17.2458925471476441   F   F   F
  2.7506453788156700  3.1761716998088549 17.2458925471476441   F   F   F
  5.5012907576313399  3.1761716998088549 17.2458925471476441   F   F   F
  8.2519361364470090  3.1761716998088549 17.2458925471476441   F   F   F
  4.1259680682235054  5.5583004746654945 17.2458925471476441   F   F   F
  6.8766134470391753  5.5583004746654945 17.2458925471476441   F   F   F
  9.6272588258548453  5.5583004746654945 17.2458925471476441   F   F   F
  8.2528680593198054  1.5875629739713044 19.5250129103443619   T   T   T
  2.7532277350859098  1.5889261711155669 19.5227797848016742   T   T   T
  5.5012609183618304  1.5907326442348764 19.5200273268190934   T   T   T
  9.6193243228283229  3.9746102846954563 19.5467976687787122   T   T   T
  4.1296291021224194  3.9690944988467671 19.5208652296506813   T   T   T
  6.8939838883281546  3.9796528240097890 19.5556263448765044   T   T   T
 11.0014519736164562  6.3533831762793236 19.5228453128286823   T   T   T
  5.4992493554410311  6.3528562640342745 19.5235939948458359   T   T   T
  8.2521633920790229  6.3396958161078665 19.5510739536792286   T   T   T
  0.0036392283629281  0.0021199798548605 21.8364075257474362   T   T   T
  2.7446507626014980  0.0074122259149735 21.8212027628702891   T   T   T
  5.5056810597992438  0.0079600582302342 21.8220974622963375   T   T   T
  1.3797532227357423  2.3755482333320170 21.8255527928745181   T   T   T
  4.1283231433629375  2.3797271117383993 21.8396138367903774   T   T   T
  6.8717091943341355  2.3719046328030537 21.8208994663803963   T   T   T
  2.7653752473508724  4.7630855105736947 21.8110674211101880   T   T   T
  5.4965703673894986  4.7641634516188489 21.8137795531934700   T   T   T
  8.2408448780318810  4.7627834724959177 21.9293791011365258   T   T   T
  6.3844788540817516  4.5874914291303339 24.9926772052814563   T   T   T
  7.8576484092758996  4.7159690379529327 25.0311772436517650   T   T   T
  8.6231981600688652  4.7928167909883594 24.0630223135219445   T   T   T
  6.0884009939124200  3.5907260172359030 25.3563017983325736   T   T   T
  5.9030464044371582  5.3084788803363452 25.6671875732079258   T   T   T
  5.9958108758853159  4.7186532447698681 23.9673165209111367   T   T   T
  8.3241269736050612  4.7335696783184176 26.0345340721228986   T   T   T
