CH3OCH3_Rh111
 1.0000000000000000
    10.7565083554097622    0.0000000000000000    0.0000000000000000
     0.0000000000000000    9.3154094918044255    0.0000000000000000
     0.0000000000000000    0.0000000000000000   36.5869892211844387
 Rh  C   O   H  
  64   2   1   6
Selective dynamics
Cartesian
  0.0000000000000000  0.0000000000000000 15.0000000000000000   F   F   F
  2.6891270888524406  0.0000000000000000 15.0000000000000000   F   F   F
  5.3782541777048811  0.0000000000000000 15.0000000000000000   F   F   F
  8.0673812665573212  0.0000000000000000 15.0000000000000000   F   F   F
  1.3445635444262203  2.3288523729511064 15.0000000000000000   F   F   F
  4.0336906332786606  2.3288523729511064 15.0000000000000000   F   F   F
  6.7228177221311016  2.3288523729511064 15.0000000000000000   F   F   F
  9.4119448109835417  2.3288523729511064 15.0000000000000000   F   F   F
  0.0000000000000000  4.6577047459022127 15.0000000000000000   F   F   F
  2.6891270888524406  4.6577047459022127 15.0000000000000000   F   F   F
  5.3782541777048811  4.6577047459022127 15.0000000000000000   F   F   F
  8.0673812665573212  4.6577047459022127 15.0000000000000000   F   F   F
  1.3445635444262203  6.9865571188533195 15.0000000000000000   F   F   F
  4.0336906332786606  6.9865571188533195 15.0000000000000000   F   F   F
  6.7228177221311016  6.9865571188533195 15.0000000000000000   F   F   F
  9.4119448109835417  6.9865571188533195 15.0000000000000000   F   F   F
  1.3445635444262203  0.7762841243170354 17.1956630737281486   F   F   F
  4.0336906332786606  0.7762841243170354 17.1956630737281486   F   F   F
  6.7228177221311016  0.7762841243170354 17.1956630737281486   F   F   F
  9.4119448109835417  0.7762841243170354 17.1956630737281486   F   F   F
  0.0000000000000000  3.1051364972681417 17.1956630737281486   F   F   F
  2.6891270888524406  3.1051364972681417 17.1956630737281486   F   F   F
  5.3782541777048811  3.1051364972681417 17.1956630737281486   F   F   F
  8.0673812665573212  3.1051364972681417 17.1956630737281486   F   F   F
  1.3445635444262203  5.4339888702192489 17.1956630737281486   F   F   F
  4.0336906332786606  5.4339888702192489 17.1956630737281486   F   F   F
  6.7228177221311016  5.4339888702192489 17.1956630737281486   F   F   F
  9.4119448109835417  5.4339888702192489 17.1956630737281486   F   F   F
  0.0000000000000000  7.7628412431703548 17.1956630737281486   F   F   F
  2.6891270888524406  7.7628412431703548 17.1956630737281486   F   F   F
  5.3782541777048811  7.7628412431703548 17.1956630737281486   F   F   F
  8.0673812665573212  7.7628412431703548 17.1956630737281486   F   F   F
 10.7549652953119672  1.5488695637428636 19.3992307396534329   T   T   T
  2.6860243159433979  1.5520341149404528 19.3966315820291584   T   T   T
  5.3751669256729508  1.5515162068482440 19.3977967710910981   T   T   T
  8.0668730960932074  1.5534150947111152 19.3974361780920077   T   T   T
  1.3422390514181126  3.8771664871969418 19.3961232486400519   T   T   T
  4.0437439154166110  3.8871331810677865 19.4350854937110959   T   T   T
  6.7066755230747432  3.8882139836038778 19.4329632162031771   T   T   T
  9.4074779778005091  3.8781617438678850 19.3982719070997334   T   T   T
 10.7543886850778456  6.2088544690541543 19.4001192561366587   T   T   T
  2.6873056681682495  6.2079385327644587 19.3995613312246498   T   T   T
  5.3759285518965934  6.1922782088360124 19.4358140903045147   T   T   T
  8.0643474759674767  6.2088475050282934 19.3995556269799465   T   T   T
  1.3417855182269036  8.5366645192684523 19.4008030104294598   T   T   T
  4.0342598584855835  8.5363927453030595 19.3979839806226089   T   T   T
  6.7195641603653868  8.5358456769178748 19.3965311934906879   T   T   T
  9.4112590242449770  8.5373390791466868 19.3999503096578039   T   T   T
 10.7543358305149326  9.3118274896908595 21.5906748981968022   T   T   T
  2.6839662116681113  9.3147579885278784 21.5875389461930602   T   T   T
  5.3780018363622624  9.3083089330749065 21.5843560189349724   T   T   T
  8.0705606311841240  9.3154053242365507 21.5872845322266684   T   T   T
  1.3432180907883635  2.3261719847806326 21.5844940592940198   T   T   T
  4.0280216197049183  2.3126307728230335 21.5718738912444863   T   T   T
  6.7296741433028666  2.3066388023869253 21.5689044196818038   T   T   T
  9.4077922686077731  2.3272557346442833 21.5854693551042445   T   T   T
 10.7555569539111548  4.6544912813397143 21.5867321391391300   T   T   T
  2.6725374067159189  4.6566740530919972 21.5709216456489479   T   T   T
  5.3674871725263387  4.6458313665072852 21.6891632920674375   T   T   T
  8.0778067028789220  4.6605177733815255 21.5819512047250406   T   T   T
  1.3437897395653366  6.9834544110105856 21.5899336418754153   T   T   T
  4.0191333721110878  7.0002394165435717 21.5758338388980668   T   T   T
  6.7308220430574757  6.9923519808392687 21.5809468042820356   T   T   T
  9.4097708836426808  6.9829182690689020 21.5878068246791841   T   T   T
  4.2577506045538636  5.2161545976802044 24.6481135376525273   T   T   T
  5.8151113594308210  3.4105388306373765 24.6320310748293885   T   T   T
  5.4062000772778553  4.6389577410266654 23.9918871235269755   T   T   T
  4.4999066622555404  5.3737573678629591 25.7080935787271976   T   T   T
  4.0540038686041777  6.1801578081279089 24.1624956783100870   T   T   T
  3.3837625560964666  4.5501909753900138 24.5516508556590978   T   T   T
  6.0175828149842552  3.6168650644735552 25.6919806558226647   T   T   T
  6.7352790523631638  3.0600310634407779 24.1430655460349755   T   T   T
  5.0263320013441701  2.6458881661487270 24.5379792100132619   T   T   T
