N2_Pt110
 1.0000000000000000
    11.7599999999999998    0.0000000000000000    0.0000000000000000
     0.0000000000000000    5.5437171645025325    0.0000000000000000
     0.0000000000000000    0.0000000000000000   34.1577878733768969
 Pt  N  
  24   2
Selective dynamics
Cartesian
  1.9600000000000000  1.3859292911256331 14.9999999999999982   F   F   F
  5.8799999999999999  1.3859292911256331 14.9999999999999982   F   F   F
  9.8000000000000007  1.3859292911256331 14.9999999999999982   F   F   F
  1.9600000000000000  4.1577878733768996 14.9999999999999982   F   F   F
  5.8799999999999999  4.1577878733768996 14.9999999999999982   F   F   F
  9.8000000000000007  4.1577878733768996 14.9999999999999982   F   F   F
  0.0000000000000000  0.0000000000000000 16.3859292911256311   F   F   F
  3.9199999999999999  0.0000000000000000 16.3859292911256311   F   F   F
  7.8399999999999999  0.0000000000000000 16.3859292911256311   F   F   F
  0.0000000000000000  2.7718585822512662 16.3859292911256311   F   F   F
  3.9199999999999999  2.7718585822512662 16.3859292911256311   F   F   F
  7.8399999999999999  2.7718585822512662 16.3859292911256311   F   F   F
  1.9417177212243073  1.3839854997725758 17.8681836443544029   T   T   T
  5.8986449772115943  1.3838947147525595 17.8677629824631445   T   T   T
  9.8000020154487970  1.3826019733991797 17.8996070279870843   T   T   T
  1.9403589619365582  4.1638425186403412 17.8679711231016931   T   T   T
  5.9000268380020895  4.1639434514016243 17.8675222314999225   T   T   T
  9.7999977860801959  4.1614251765912167 17.8993894997148999   T   T   T
  0.0022695957686936  0.0006983103270505 19.2087523600302994   T   T   T
  3.9202291956217161  0.0064337435063229 19.1333054850833797   T   T   T
  7.8379096394908085  0.0007087489363293 19.2090043923415372   T   T   T
 11.7586170447143736  2.7721480323242047 19.1852953948925418   T   T   T
  3.9209153562958550  2.7788761994645084 19.2052654963578817   T   T   T
  7.8413830619264688  2.7721551390618946 19.1854377536810752   T   T   T
  3.9119603585307270  2.9718744095479344 22.2459110608275843   T   T   T
  3.9177850603242423  2.8768476768136124 21.1212595177778830   T   T   T
