CH3CHO_Ag110
 1.0000000000000000
    12.2699999999999996    0.0000000000000000    0.0000000000000000
     0.0000000000000000    5.7841334701059592    0.0000000000000000
     0.0000000000000000    0.0000000000000000   34.3381001025794674
 Ag  C   O   H  
  24   2   1   4
Selective dynamics
Cartesian
  2.0449999999999999  1.4460333675264898 15.0000000000000053   F   F   F
  6.1349999999999998  1.4460333675264898 15.0000000000000053   F   F   F
 10.2249999999999979  1.4460333675264898 15.0000000000000053   F   F   F
  2.0449999999999999  4.3381001025794692 15.0000000000000053   F   F   F
  6.1349999999999998  4.3381001025794692 15.0000000000000053   F   F   F
 10.2249999999999979  4.3381001025794692 15.0000000000000053   F   F   F
  0.0000000000000000  0.0000000000000000 16.4460333675264891   F   F   F
  4.0899999999999999  0.0000000000000000 16.4460333675264891   F   F   F
  8.1799999999999997  0.0000000000000000 16.4460333675264891   F   F   F
  0.0000000000000000  2.8920667350529796 16.4460333675264891   F   F   F
  4.0899999999999999  2.8920667350529796 16.4460333675264891   F   F   F
  8.1799999999999997  2.8920667350529796 16.4460333675264891   F   F   F
  2.0423710785871134  1.4471153600844546 17.9678462998528161   T   T   T
  6.1350746756859422  1.4473925908279361 17.9767668495118116   T   T   T
 10.2261727412743859  1.4461990514771361 17.9837559585037070   T   T   T
  2.0474846044417601  4.3356794681756075 17.9810702014778876   T   T   T
  6.1319874107506989  4.3338057434170008 17.9844114717800281   T   T   T
 10.2258849034047454  4.3387429865220897 17.9839686915227439   T   T   T
  0.0025760637089071  5.7836369321512029 19.3556930710921407   T   T   T
  4.0857461146827188  5.7680082991912309 19.3261820962229578   T   T   T
  8.1792084444750284  0.0018519913932777 19.3565488815393252   T   T   T
  0.0018126012795923  2.8913556076164508 19.3560848710129640   T   T   T
  4.0973387597744280  2.9057477255708388 19.4014765559480189   T   T   T
  8.1846784094386695  2.8914609732221650 19.3511461189667742   T   T   T
  5.4850446366089844  3.4634528695309514 22.9316550930068068   T   T   T
  4.3639060298710124  2.5001202919903789 22.7567311841278759   T   T   T
  3.8392774017139342  2.2110768779300134 21.6721532362239202   T   T   T
  6.3616488371632087  2.9507385435219664 23.3640943764314031   T   T   T
  5.7495272234312784  3.9171910092073006 21.9733159128174833   T   T   T
  5.2180777507577423  4.2379875839267820 23.6698237523600419   T   T   T
  3.9833827796431343  2.0065965172322815 23.6733500532939374   T   T   T
