H2S_Ir100
 1.0000000000000000
     8.1458701192690270    0.0000000000000000    0.0000000000000000
     0.0000000000000000    8.1458701192690270    0.0000000000000000
     0.0000000000000000    0.0000000000000000   35.7599999999999980
 Ir  S   H  
  36   1   2
Selective dynamics
Cartesian
  1.3576450198781711  1.3576450198781711 15.0000000000000018   F   F   F
  4.0729350596345135  1.3576450198781711 15.0000000000000018   F   F   F
  6.7882250993908553  1.3576450198781711 15.0000000000000018   F   F   F
  1.3576450198781711  4.0729350596345135 15.0000000000000018   F   F   F
  4.0729350596345135  4.0729350596345135 15.0000000000000018   F   F   F
  6.7882250993908553  4.0729350596345135 15.0000000000000018   F   F   F
  1.3576450198781711  6.7882250993908553 15.0000000000000018   F   F   F
  4.0729350596345135  6.7882250993908553 15.0000000000000018   F   F   F
  6.7882250993908553  6.7882250993908553 15.0000000000000018   F   F   F
  0.0000000000000000  0.0000000000000000 16.9200000000000017   F   F   F
  2.7152900397563422  0.0000000000000000 16.9200000000000017   F   F   F
  5.4305800795126844  0.0000000000000000 16.9200000000000017   F   F   F
  0.0000000000000000  2.7152900397563422 16.9200000000000017   F   F   F
  2.7152900397563422  2.7152900397563422 16.9200000000000017   F   F   F
  5.4305800795126844  2.7152900397563422 16.9200000000000017   F   F   F
  0.0000000000000000  5.4305800795126844 16.9200000000000017   F   F   F
  2.7152900397563422  5.4305800795126844 16.9200000000000017   F   F   F
  5.4305800795126844  5.4305800795126844 16.9200000000000017   F   F   F
  1.3568815993330732  1.3611222469583510 18.8842697768195933   T   T   T
  4.0694378218905607  1.3630712056450824 18.8820315218703705   T   T   T
  6.7889594889620888  1.3603237467753191 18.8765991287668768   T   T   T
  1.3696108165749856  4.0740865078942257 18.8959865875496078   T   T   T
  4.0744023705558732  4.0807140955929642 18.9027605871575339   T   T   T
  6.7862967757819597  4.0776997107886856 18.8897000780335986   T   T   T
  1.3695675652882322  6.7782389586413796 18.8912035769632105   T   T   T
  4.0742412195187807  6.7867585618973401 18.8896356671573074   T   T   T
  6.7863644113664572  6.7815813279957595 18.8882889798114491   T   T   T
  0.0010822218783123  8.1428335146513220 20.7336583117254527   T   T   T
  2.7177512477765529  0.0070138972290504 20.7216815141225865   T   T   T
  5.4278581939262258  0.0233610910484115 20.7227045987131788   T   T   T
  8.1363538639497577  2.7263979198374293 20.7340109723819523   T   T   T
  2.7184566190461887  2.6979469288245146 20.7860443218141455   T   T   T
  5.4415191523033570  2.7094318603740830 20.7278964466139115   T   T   T
  0.0077928149552730  5.4302870486308255 20.7467751262834987   T   T   T
  2.6912109192092970  5.4346216696870275 20.8138366495638465   T   T   T
  5.4735946771810555  5.4347215701084544 20.8113776231189718   T   T   T
  4.0948303092602423  5.6415764778286333 22.6667981262575502   T   T   T
  2.7132946440038430  2.5114952278848315 22.3779914894241330   T   T   T
  4.1298419466683889  4.3645299083001339 23.1786671180846717   T   T   T
