C2H4_Ag110
 1.0000000000000000
    12.2699999999999996    0.0000000000000000    0.0000000000000000
     0.0000000000000000    5.7841334701059592    0.0000000000000000
     0.0000000000000000    0.0000000000000000   34.3381001025794674
 Ag  C   H  
  24   2   4
Selective dynamics
Cartesian
  2.0449999999999999  1.4460333675264898 15.0000000000000053   F   F   F
  6.1349999999999998  1.4460333675264898 15.0000000000000053   F   F   F
 10.2249999999999979  1.4460333675264898 15.0000000000000053   F   F   F
  2.0449999999999999  4.3381001025794692 15.0000000000000053   F   F   F
  6.1349999999999998  4.3381001025794692 15.0000000000000053   F   F   F
 10.2249999999999979  4.3381001025794692 15.0000000000000053   F   F   F
  0.0000000000000000  0.0000000000000000 16.4460333675264891   F   F   F
  4.0899999999999999  0.0000000000000000 16.4460333675264891   F   F   F
  8.1799999999999997  0.0000000000000000 16.4460333675264891   F   F   F
  0.0000000000000000  2.8920667350529796 16.4460333675264891   F   F   F
  4.0899999999999999  2.8920667350529796 16.4460333675264891   F   F   F
  8.1799999999999997  2.8920667350529796 16.4460333675264891   F   F   F
  2.0574740629354427  1.4566321598823000 17.9780692523062129   T   T   T
  6.1281333667121913  1.4542992748637054 17.9712313760519429   T   T   T
 10.2256991947186169  1.4440438690438668 17.9843694392002149   T   T   T
  2.0554623136168519  4.3275171078362211 17.9756250343611264   T   T   T
  6.1223810717441118  4.3271437316305468 17.9785820601605657   T   T   T
 10.2247178042956417  4.3401815709698308 17.9846095349978654   T   T   T
  0.0068296011256059  5.7828506833550604 19.3523354348023098   T   T   T
  4.0898048234376940  5.7834505707670498 19.3119797930599901   T   T   T
  8.1734576837892110  0.0014549723130341 19.3530996508015960   T   T   T
 12.2673314374534623  2.8910117850379140 19.3518271095086796   T   T   T
  4.0945333513221298  2.8834467828635466 19.5590831571889439   T   T   T
  8.1837334371833261  2.8932913416483794 19.3512972296231958   T   T   T
  3.9738468193936489  2.1655830621491816 21.8243721949142149   T   T   T
  4.2773090471185515  3.5118551772674218 21.8053022080540515   T   T   T
  2.9435205555851600  1.8400725321589353 21.9674439106211565   T   T   T
  4.7673954153827003  1.4327418683665496 21.9766655834093356   T   T   T
  3.4861991966243431  4.2487158130558971 21.9499744099493661   T   T   T
  5.3106738396235773  3.8402319216073333 21.9189380162361047   T   T   T
