CH4_Ag110
 1.0000000000000000
    12.2699999999999996    0.0000000000000000    0.0000000000000000
     0.0000000000000000    5.7841334701059592    0.0000000000000000
     0.0000000000000000    0.0000000000000000   34.3381001025794674
 Ag  C   H  
  24   1   4
Selective dynamics
Cartesian
  2.0449999999999999  1.4460333675264898 15.0000000000000053   F   F   F
  6.1349999999999998  1.4460333675264898 15.0000000000000053   F   F   F
 10.2249999999999979  1.4460333675264898 15.0000000000000053   F   F   F
  2.0449999999999999  4.3381001025794692 15.0000000000000053   F   F   F
  6.1349999999999998  4.3381001025794692 15.0000000000000053   F   F   F
 10.2249999999999979  4.3381001025794692 15.0000000000000053   F   F   F
  0.0000000000000000  0.0000000000000000 16.4460333675264891   F   F   F
  4.0899999999999999  0.0000000000000000 16.4460333675264891   F   F   F
  8.1799999999999997  0.0000000000000000 16.4460333675264891   F   F   F
  0.0000000000000000  2.8920667350529796 16.4460333675264891   F   F   F
  4.0899999999999999  2.8920667350529796 16.4460333675264891   F   F   F
  8.1799999999999997  2.8920667350529796 16.4460333675264891   F   F   F
  2.0455216420095192  1.4471894881710203 17.9891707226096038   T   T   T
  6.1352040182831900  1.4467716236838637 17.9882516630254621   T   T   T
 10.2249552127701442  1.4459729008895998 17.9876924056385121   T   T   T
  2.0458686634884589  4.3368909243887863 17.9895129073856275   T   T   T
  6.1349991725509101  4.3373861311963413 17.9885427100806297   T   T   T
 10.2251188599989913  4.3381763080080207 17.9876647413161272   T   T   T
  0.0006756945445135  5.7840617861515087 19.3543050724367163   T   T   T
  4.0887973510079298  5.7840760988602540 19.3490393666820992   T   T   T
  8.1777406772137393  5.7839798350725165 19.3562320622328770   T   T   T
  0.0020469421950053  2.8919613609039652 19.3551574632234527   T   T   T
  4.0898318534538607  2.8917988302531987 19.3544054394389207   T   T   T
  8.1800602886861302  2.8917642480951158 19.3541869390786445   T   T   T
  4.6430991341624450  2.6892539226221062 22.7893304661108367   T   T   T
  4.5591120841171673  2.9473923156387407 23.8520513686795148   T   T   T
  5.0804637701551361  3.5417390931088990 22.2564039532991664   T   T   T
  3.6409151986478925  2.4659070233574640 22.4040421106464542   T   T   T
  5.2884067938841826  1.8104388498522335 22.6796420752370054   T   T   T
