H2CO_Rh110
 1.0000000000000000
    11.4089999999999989    0.0000000000000000    0.0000000000000000
     0.0000000000000000    5.3782541777048811    0.0000000000000000
     0.0000000000000000    0.0000000000000000   34.0336906332786597
 Rh  C   O   H  
  24   1   1   2
Selective dynamics
Cartesian
  1.9014999999999997  1.3445635444262203 15.0000000000000000   F   F   F
  5.7044999999999995  1.3445635444262203 15.0000000000000000   F   F   F
  9.5074999999999985  1.3445635444262203 15.0000000000000000   F   F   F
  1.9014999999999997  4.0336906332786606 15.0000000000000000   F   F   F
  5.7044999999999995  4.0336906332786606 15.0000000000000000   F   F   F
  9.5074999999999985  4.0336906332786606 15.0000000000000000   F   F   F
  0.0000000000000000  0.0000000000000000 16.3445635444262187   F   F   F
  3.8029999999999995  0.0000000000000000 16.3445635444262187   F   F   F
  7.6059999999999990  0.0000000000000000 16.3445635444262187   F   F   F
  0.0000000000000000  2.6891270888524406 16.3445635444262187   F   F   F
  3.8029999999999995  2.6891270888524406 16.3445635444262187   F   F   F
  7.6059999999999990  2.6891270888524406 16.3445635444262187   F   F   F
  1.9109649321064581  1.3333463483723986 17.6478471844523384   T   T   T
  5.7030731858036310  1.3505330360592389 17.7349097471196409   T   T   T
  9.5139721719493959  1.3521479443781688 17.7490917924852987   T   T   T
  1.8889579445750124  4.0415438710405001 17.7012335589128327   T   T   T
  5.6951099612265903  4.0171384751359200 17.7475093627326963   T   T   T
  9.5027290356639202  4.0501892271363706 17.6921601993758877   T   T   T
 11.3996172702182648  0.0359079690224536 19.0018794817375216   T   T   T
  3.8177277471165567  5.3541813574043582 18.9603334873262099   T   T   T
  7.6013559038028022  0.0109914255196104 18.9946943539049293   T   T   T
  0.0794802919612013  2.6945396789952443 19.1377471965853552   T   T   T
  3.7613151901884785  2.6582682270012898 19.0262886752565947   T   T   T
  7.6131421888364059  2.6903264542841261 18.9833129773170484   T   T   T
  1.2648251548340763  2.2257292455353395 20.5812508313425226   T   T   T
  2.5137171216547967  2.3069005332605492 20.6898804135405001   T   T   T
  0.7043708979839761  1.9313081972749633 21.5122214918926780   T   T   T
 11.0188790758101085  4.1332941269113403 20.0791473249244028   T   T   T
