CH4_Pd100
 1.0000000000000000
     8.2519361364470107    0.0000000000000000    0.0000000000000000
     0.0000000000000000    8.2519361364470107    0.0000000000000000
     0.0000000000000000    0.0000000000000000   35.8350000000000009
 Pd  C   H  
  36   1   4
Selective dynamics
Cartesian
  1.3753226894078350  1.3753226894078350 15.0000000000000000   F   F   F
  4.1259680682235054  1.3753226894078350 15.0000000000000000   F   F   F
  6.8766134470391780  1.3753226894078350 15.0000000000000000   F   F   F
  1.3753226894078350  4.1259680682235054 15.0000000000000000   F   F   F
  4.1259680682235054  4.1259680682235054 15.0000000000000000   F   F   F
  6.8766134470391780  4.1259680682235054 15.0000000000000000   F   F   F
  1.3753226894078350  6.8766134470391780 15.0000000000000000   F   F   F
  4.1259680682235054  6.8766134470391780 15.0000000000000000   F   F   F
  6.8766134470391780  6.8766134470391780 15.0000000000000000   F   F   F
  0.0000000000000000  0.0000000000000000 16.9450000000000003   F   F   F
  2.7506453788156700  0.0000000000000000 16.9450000000000003   F   F   F
  5.5012907576313399  0.0000000000000000 16.9450000000000003   F   F   F
  0.0000000000000000  2.7506453788156700 16.9450000000000003   F   F   F
  2.7506453788156700  2.7506453788156700 16.9450000000000003   F   F   F
  5.5012907576313399  2.7506453788156700 16.9450000000000003   F   F   F
  0.0000000000000000  5.5012907576313399 16.9450000000000003   F   F   F
  2.7506453788156700  5.5012907576313399 16.9450000000000003   F   F   F
  5.5012907576313399  5.5012907576313399 16.9450000000000003   F   F   F
  1.3764359290839532  1.3765672751214530 18.9469388581221310   T   T   T
  4.1244233700889534  1.3766208239654503 18.9468381161228159   T   T   T
  6.8766948595673183  1.3752346689044852 18.9447266941161416   T   T   T
  1.3765296837956584  4.1247072177367547 18.9469686237829045   T   T   T
  4.1244420393880699  4.1247208938643753 18.9467403846716351   T   T   T
  6.8766632490012141  4.1260509995798769 18.9446684748770480   T   T   T
  1.3754499664610851  6.8766189649100564 18.9446598059961175   T   T   T
  4.1263379026177534  6.8766330096112593 18.9448177562916662   T   T   T
  6.8766950682953754  6.8766108451019043 18.9435570376178184   T   T   T
  0.0019546888120690  0.0020443530626800 20.9315230689511296   T   T   T
  2.7504796846941955  8.2500561188570902 20.9282376653552689   T   T   T
  5.4994403501125602  0.0019189502029640 20.9315186615421887   T   T   T
  8.2502238522060782  2.7506067244536285 20.9280565431051038   T   T   T
  2.7508637646301426  2.7506937773071387 20.9428454290258159   T   T   T
  5.5028394233324294  2.7505598570402139 20.9281994641687810   T   T   T
  0.0019894686529266  5.4992389957896597 20.9316151921113125   T   T   T
  2.7504499265442877  5.5030274442490956 20.9283252795413475   T   T   T
  5.4995360481635505  5.4993634641462998 20.9314789984752743   T   T   T
  2.7123347788848320  2.7255460258049955 23.8207698235300214   T   T   T
  3.2435407315807052  3.6294547023724899 23.4989760784043824   T   T   T
  2.6286817720613080  2.7378535844308103 24.9136863593636164   T   T   T
  3.2686524597230222  1.8303186246897301 23.5193210141772759   T   T   T
  1.6989364920023666  2.7059555581169339 23.3964681957393452   T   T   T
