CH4_Au110
 1.0000000000000000
    16.3200000000000003    0.0000000000000000    0.0000000000000000
     0.0000000000000000   11.5399826689644573    0.0000000000000000
     0.0000000000000000    0.0000000000000000   34.3274935008616708
 Au  C   H  
  64   1   4
Selective dynamics
Cartesian
  2.0400000000000000  1.4424978336205572 14.9999999999999964   F   F   F
  6.1200000000000001  1.4424978336205572 14.9999999999999964   F   F   F
 10.1999999999999922  1.4424978336205572 14.9999999999999964   F   F   F
 14.2800000000000011  1.4424978336205572 14.9999999999999964   F   F   F
  2.0400000000000000  4.3274935008616717 14.9999999999999964   F   F   F
  6.1200000000000001  4.3274935008616717 14.9999999999999964   F   F   F
 10.1999999999999922  4.3274935008616717 14.9999999999999964   F   F   F
 14.2800000000000011  4.3274935008616717 14.9999999999999964   F   F   F
  2.0400000000000000  7.2124891681027856 14.9999999999999964   F   F   F
  6.1200000000000001  7.2124891681027856 14.9999999999999964   F   F   F
 10.1999999999999922  7.2124891681027856 14.9999999999999964   F   F   F
 14.2800000000000011  7.2124891681027856 14.9999999999999964   F   F   F
  2.0400000000000000 10.0974848353439004 14.9999999999999964   F   F   F
  6.1200000000000001 10.0974848353439004 14.9999999999999964   F   F   F
 10.1999999999999922 10.0974848353439004 14.9999999999999964   F   F   F
 14.2800000000000011 10.0974848353439004 14.9999999999999964   F   F   F
  0.0000000000000000  0.0000000000000000 16.4424978336205569   F   F   F
  4.0800000000000001  0.0000000000000000 16.4424978336205569   F   F   F
  8.1600000000000001  0.0000000000000000 16.4424978336205569   F   F   F
 12.2400000000000002  0.0000000000000000 16.4424978336205569   F   F   F
  0.0000000000000000  2.8849956672411143 16.4424978336205569   F   F   F
  4.0800000000000001  2.8849956672411143 16.4424978336205569   F   F   F
  8.1600000000000001  2.8849956672411143 16.4424978336205569   F   F   F
 12.2400000000000002  2.8849956672411143 16.4424978336205569   F   F   F
  0.0000000000000000  5.7699913344822287 16.4424978336205569   F   F   F
  4.0800000000000001  5.7699913344822287 16.4424978336205569   F   F   F
  8.1600000000000001  5.7699913344822287 16.4424978336205569   F   F   F
 12.2400000000000002  5.7699913344822287 16.4424978336205569   F   F   F
  0.0000000000000000  8.6549870017233435 16.4424978336205569   F   F   F
  4.0800000000000001  8.6549870017233435 16.4424978336205569   F   F   F
  8.1600000000000001  8.6549870017233435 16.4424978336205569   F   F   F
 12.2400000000000002  8.6549870017233435 16.4424978336205569   F   F   F
  2.0399802352635050  1.4424686368321185 18.0696174795938411   T   T   T
  6.1193178804103674  1.4424215140918570 18.0689345651570648   T   T   T
 10.2005082560376543  1.4423890899660055 18.0694747220214431   T   T   T
 14.2799416473578766  1.4425341569709931 18.0696455279893087   T   T   T
  2.0404133675550655  4.3277188300370666 18.0699120293619977   T   T   T
  6.1205155763263965  4.3291317576642383 18.0733957652617718   T   T   T
 10.2006825019834846  4.3287196059382769 18.0725284163833066   T   T   T
 14.2794289343851144  4.3278286911605601 18.0699589193674406   T   T   T
  2.0403697434133989  7.2125414467703397 18.0699824040957751   T   T   T
  6.1205650561004621  7.2125239224774162 18.0716955888287245   T   T   T
 10.1993359757839741  7.2122387313291494 18.0708823106805632   T   T   T
 14.2794952930052101  7.2124662021258814 18.0699921243492767   T   T   T
  2.0405028068581061 10.0971861761719861 18.0699754280126363   T   T   T
  6.1201060316359053 10.0955178526444929 18.0736066504093920   T   T   T
 10.2006043774260498 10.0954931016753200 18.0734334738375715   T   T   T
 14.2794165018490364 10.0971590697864535 18.0699539050411424   T   T   T
 16.3199994796949959 11.5398756710526182 19.4111288689828712   T   T   T
  4.0804964858473545 11.5394833828374512 19.4104866784040020   T   T   T
  8.1599846200496504  0.0016841701349671 19.4118344393528481   T   T   T
 12.2393942860757186 11.5392134589993098 19.4105643156470826   T   T   T
 16.3199813495025552  2.8851040596996658 19.4111200661918595   T   T   T
  4.0807164450551845  2.8858355675637277 19.4105072339107032   T   T   T
  8.1599782143373947  2.8828161478501131 19.4117244852290654   T   T   T
 12.2391856426571746  2.8860402805517027 19.4106785701593161   T   T   T
  0.0000122172859392  5.7701221596919314 19.4108390293368771   T   T   T
  4.0807577544636802  5.7707794313171785 19.4110378336395684   T   T   T
  8.1589228694435274  5.7624077021622053 19.3944677142066695   T   T   T
 12.2390575131959611  5.7712557400597690 19.4114907682075852   T   T   T
  0.0000108331747459  8.6548477974836668 19.4108663468796081   T   T   T
  4.0812372577738687  8.6538754957501798 19.4115145663695685   T   T   T
  8.1582889729803636  8.6634336641988767 19.3956481320403213   T   T   T
 12.2389138752816162  8.6535168320708973 19.4116771454922770   T   T   T
  8.3754643676479219  7.0759356182259836 22.5162949248451163   T   T   T
  8.8495200124996636  8.0095450791707243 22.1921118471079026   T   T   T
  8.9976607109497326  6.2266098443720184 22.2115524202887364   T   T   T
  7.3719228136677746  6.9911821110279764 22.0841038867061279   T   T   T
  8.2870025740488753  7.0799874487842498 23.6087534801528633   T   T   T
